.Version 10.0.3 of ABINIT, released Apr 2024.

 ABINIT is a project of the Universite Catholique de Louvain,
 Corning Inc. and other collaborators, see ~abinit/doc/developers/contributors.txt .
 acknowledgments of the ABINIT effort.

.Starting date : Thu 23 May 2024.
- ( at 17h52 )

- input  file    -> ecut.abi
- output file    -> ecut.abo
- root for input  files -> ecuti
- root for output files -> ecuto

 DATASET   11 : space group F-4 3 m (#216); Bravais cF (face-center cubic)
     intxc =       0    ionmov =       0      iscf =       7    lmnmax =       8
     lnmax =       8     mgfft =      36  mpssoang =       3    mqgrid =    3001
     natom =       2  nloc_mem =       1    nspden =       1   nspinor =       1
    nsppol =       1      nsym =      24    n1xccc =    2501    ntypat =       2
    occopt =       1   xclevel =       2
-    mband =          15        mffmem =           1         mkmem =          16
       mpw =        1614          nfft =       46656          nkpt =          16
  Rough estimation (10% accuracy) of disk space for files :

[...]

 DATASET  251 : space group F-4 3 m (#216); Bravais cF (face-center cubic)
     intxc =       0    ionmov =       0      iscf =       7    lmnmax =       8
     lnmax =       8     mgfft =      48  mpssoang =       3    mqgrid =    3001
     natom =       2  nloc_mem =       1    nspden =       1   nspinor =       1
    nsppol =       1      nsym =      24    n1xccc =    2501    ntypat =       2
    occopt =       1   xclevel =       2
-    mband =          15        mffmem =           1         mkmem =          16
       mpw =        4396          nfft =      110592          nkpt =          16
  Rough estimation (10% accuracy) of disk space for files :

------------- Echo of variables that govern the present computation ------------
-
- outvars: echo of selected default values
-   iomode0 =  0 , fftalg0 =112 , wfoptalg0 =  0
-
- outvars: echo of global parameters not present in the input file
-  max_nthreads =    6
-
 -outvars: echo values of preprocessed input variables --------
            acell      1.0217000000E+01  1.0217000000E+01  1.0217000000E+01 Bohr
              amu      6.97230000E+01  7.49215900E+01
           diemac      1.20000000E+01
             ecut11    2.50000000E+01 Hartree
             ecut21    2.60000000E+01 Hartree
             ecut31    2.70000000E+01 Hartree
             ecut41    2.80000000E+01 Hartree
             ecut51    2.90000000E+01 Hartree
             ecut61    3.00000000E+01 Hartree
             ecut71    3.10000000E+01 Hartree
             ecut81    3.20000000E+01 Hartree
             ecut91    3.30000000E+01 Hartree
             ecut101   3.40000000E+01 Hartree
             ecut111   3.50000000E+01 Hartree
             ecut121   3.60000000E+01 Hartree
             ecut131   3.70000000E+01 Hartree
             ecut141   3.80000000E+01 Hartree
             ecut151   3.90000000E+01 Hartree
             ecut161   4.00000000E+01 Hartree
             ecut171   4.10000000E+01 Hartree
             ecut181   4.20000000E+01 Hartree
             ecut191   4.30000000E+01 Hartree
             ecut201   4.40000000E+01 Hartree
             ecut211   4.50000000E+01 Hartree
             ecut221   4.60000000E+01 Hartree
             ecut231   4.70000000E+01 Hartree
             ecut241   4.80000000E+01 Hartree
             ecut251   4.90000000E+01 Hartree
           enunit           1
-          fftalg         112
           istwfk        2    0    0    3    0    0    0    0    0    0
                         0    0    7    0    0    0
              ixc     -116133
           jdtset       11   21   31   41   51   61   71   81   91  101
                       111  121  131  141  151  161  171  181  191  201
                       211  221  231  241  251
              kpt      0.00000000E+00  0.00000000E+00  0.00000000E+00
                       1.66666667E-01  0.00000000E+00  0.00000000E+00
                       3.33333333E-01  0.00000000E+00  0.00000000E+00
                       5.00000000E-01  0.00000000E+00  0.00000000E+00
                       1.66666667E-01  1.66666667E-01  0.00000000E+00
                       3.33333333E-01  1.66666667E-01  0.00000000E+00
                       5.00000000E-01  1.66666667E-01  0.00000000E+00
                      -3.33333333E-01  1.66666667E-01  0.00000000E+00
                      -1.66666667E-01  1.66666667E-01  0.00000000E+00
                       3.33333333E-01  3.33333333E-01  0.00000000E+00
                       5.00000000E-01  3.33333333E-01  0.00000000E+00
                      -3.33333333E-01  3.33333333E-01  0.00000000E+00
                       5.00000000E-01  5.00000000E-01  0.00000000E+00
                       5.00000000E-01  3.33333333E-01  1.66666667E-01
                      -3.33333333E-01  3.33333333E-01  1.66666667E-01
                      -3.33333333E-01  5.00000000E-01  1.66666667E-01
         kptrlatt        6    0    0      0    6    0      0    0    6
          kptrlen      4.33470599E+01
P           mkmem          16
            natom           2
            nband          15
           ndtset          25
           ndivsm          20
            ngfft11        36      36      36
            ngfft21        36      36      36
            ngfft31        36      36      36
            ngfft41        36      36      36
            ngfft51        36      36      36
            ngfft61        36      36      36
            ngfft71        40      40      40
            ngfft81        40      40      40
            ngfft91        40      40      40
            ngfft101       40      40      40
            ngfft111       40      40      40
            ngfft121       40      40      40
            ngfft131       40      40      40
            ngfft141       45      45      45
            ngfft151       45      45      45
            ngfft161       45      45      45
            ngfft171       45      45      45
            ngfft181       45      45      45
            ngfft191       45      45      45
            ngfft201       45      45      45
            ngfft211       45      45      45
            ngfft221       48      48      48
            ngfft231       48      48      48
            ngfft241       48      48      48
            ngfft251       48      48      48
             nkpt          16
            nstep          20
             nsym          24
           ntypat           2
              occ      2.000000  2.000000  2.000000  2.000000  2.000000  2.000000
                       2.000000  2.000000  2.000000  2.000000  2.000000  2.000000
                       2.000000  2.000000  0.000000
            rprim      0.0000000000E+00  5.0000000000E-01  5.0000000000E-01
                       5.0000000000E-01  0.0000000000E+00  5.0000000000E-01
                       5.0000000000E-01  5.0000000000E-01  0.0000000000E+00
          spgroup         216
           symrel      1  0  0   0  1  0   0  0  1       0 -1  1   0 -1  0   1 -1  0
                      -1  0  0  -1  0  1  -1  1  0       0  1 -1   1  0 -1   0  0 -1
                      -1  0  0  -1  1  0  -1  0  1       0 -1  1   1 -1  0   0 -1  0
                       1  0  0   0  0  1   0  1  0       0  1 -1   0  0 -1   1  0 -1
                      -1  0  1  -1  1  0  -1  0  0       0 -1  0   1 -1  0   0 -1  1
                       1  0 -1   0  0 -1   0  1 -1       0  1  0   0  0  1   1  0  0
                       1  0 -1   0  1 -1   0  0 -1       0 -1  0   0 -1  1   1 -1  0
                      -1  0  1  -1  0  0  -1  1  0       0  1  0   1  0  0   0  0  1
                       0  0 -1   0  1 -1   1  0 -1       1 -1  0   0 -1  1   0 -1  0
                       0  0  1   1  0  0   0  1  0      -1  1  0  -1  0  0  -1  0  1
                       0  0  1   0  1  0   1  0  0       1 -1  0   0 -1  0   0 -1  1
                       0  0 -1   1  0 -1   0  1 -1      -1  1  0  -1  0  1  -1  0  0
           toldfe      1.00000000E-06 Hartree
            typat      1  2
              wtk        0.00463    0.03704    0.03704    0.01852    0.02778    0.11111
                         0.11111    0.11111    0.05556    0.02778    0.11111    0.05556
                         0.01389    0.11111    0.11111    0.05556
           xangst      0.0000000000E+00  0.0000000000E+00  0.0000000000E+00
                       1.3516508850E+00  1.3516508850E+00  1.3516508850E+00
            xcart      0.0000000000E+00  0.0000000000E+00  0.0000000000E+00
                       2.5542500000E+00  2.5542500000E+00  2.5542500000E+00
             xred      0.0000000000E+00  0.0000000000E+00  0.0000000000E+00
                       2.5000000000E-01  2.5000000000E-01  2.5000000000E-01
            znucl       31.00000   33.00000

 chkinp: Checking input parameters for consistency, jdtset=  11.

[...]

 chkinp: Checking input parameters for consistency, jdtset= 251.

== DATASET 11 ==================================================================
-   mpi_nproc: 1, omp_nthreads: 1 (-1 if OMP is not activated)

--- !DatasetInfo
iteration_state: {dtset: 11, }
dimensions: {natom: 2, nkpt: 16, mband: 15, nsppol: 1, nspinor: 1, nspden: 1, mpw: 1614, }
cutoff_energies: {ecut:  25.0, pawecutdg:  -1.0, }
electrons: {nelect:   2.80000000E+01, charge:   0.00000000E+00, occopt:   1.00000000E+00, tsmear:   1.00000000E-02, }
meta: {optdriver: 0, ionmov: 0, optcell: 0, iscf: 7, paral_kgb: 0, }
...

 Real(R)+Recip(G) space primitive vectors, cartesian coordinates (Bohr,Bohr^-1):
 R(1)=  0.0000000  5.1085000  5.1085000  G(1)= -0.0978761  0.0978761  0.0978761
 R(2)=  5.1085000  0.0000000  5.1085000  G(2)=  0.0978761 -0.0978761  0.0978761
 R(3)=  5.1085000  5.1085000  0.0000000  G(3)=  0.0978761  0.0978761 -0.0978761
 Unit cell volume ucvol=  2.6663072E+02 bohr^3
 Angles (23,13,12)=  6.00000000E+01  6.00000000E+01  6.00000000E+01 degrees

 getcut: wavevector=  0.0000  0.0000  0.0000  ngfft=  36  36  36
         ecut(hartree)=     25.000   => boxcut(ratio)=   2.21390

 getcut : COMMENT -
  Note that boxcut > 2.2 ; recall that boxcut=Gcut(box)/Gcut(sphere) = 2
  is sufficient for exact treatment of convolution.
  Such a large boxcut is a waste : you could raise ecut
  e.g. ecut=   30.633595 Hartrees makes boxcut=2

--- Pseudopotential description ------------------------------------------------
- pspini: atom type   1  psp file is Ga.psp8
- pspatm: opening atomic psp file    Ga.psp8
- Ga    ONCVPSP-3.3.0  r_core=   1.66857   1.75011   1.90252
- 31.00000  13.00000    180430                znucl, zion, pspdat
    8 -116133    2    4       600   0.00000   pspcod,pspxc,lmax,lloc,mmax,r2well
    5.99000000000000    5.00000000000000    0.00000000000000   rchrg,fchrg,qchrg
     nproj     2     4     2
     spin-orbit psp, extension_switch     3
        nprojso     4     3
  pspatm : epsatm=   24.51314239
         --- l  ekb(1:nproj) -->
             0    1.158767    7.056324
             1    6.883841    1.296077    0.006208    0.000035
             2   -8.367207   -2.818603
  spin-orbit 1
  spin-orbit 1
  spin-orbit 1
  spin-orbit 1
  spin-orbit 2
  spin-orbit 2
  spin-orbit 2
 pspatm: atomic psp has been read  and splines computed

[...]
 prteigrs : prtvol=0 or 1, do not print more k-points.

--- !EnergyTerms
iteration_state     : {dtset: 251, }
comment             : Components of total free energy in Hartree
kinetic             :  1.38809027266944E+02
hartree             :  5.45469829661367E+01
xc                  : -4.42935658459019E+01
Ewald energy        : -1.03709047935390E+02
psp_core            :  5.59805059945077E+00
local_psp           : -1.43114436164584E+02
non_local_psp       : -9.01030378089950E+01
total_energy        : -1.82266026922340E+02
total_energy_eV     : -4.95971082322089E+03
band_energy         : -1.48247210713189E+01
...

 Cartesian components of stress tensor (hartree/bohr^3)
  sigma(1 1)= -4.49786659E-04  sigma(3 2)=  0.00000000E+00
  sigma(2 2)= -4.49786659E-04  sigma(3 1)=  0.00000000E+00
  sigma(3 3)= -4.49786659E-04  sigma(2 1)=  0.00000000E+00

-Cartesian components of stress tensor (GPa)         [Pressure=  1.3233E+01 GPa]
- sigma(1 1)= -1.32331782E+01  sigma(3 2)=  0.00000000E+00
- sigma(2 2)= -1.32331782E+01  sigma(3 1)=  0.00000000E+00
- sigma(3 3)= -1.32331782E+01  sigma(2 1)=  0.00000000E+00

== END DATASET(S) ==============================================================

 -outvars: echo values of variables after computation  --------
            acell      1.0217000000E+01  1.0217000000E+01  1.0217000000E+01 Bohr
              amu      6.97230000E+01  7.49215900E+01
           diemac      1.20000000E+01
             ecut11    2.50000000E+01 Hartree
             ecut21    2.60000000E+01 Hartree
             ecut31    2.70000000E+01 Hartree
             ecut41    2.80000000E+01 Hartree
             ecut51    2.90000000E+01 Hartree
             ecut61    3.00000000E+01 Hartree
             ecut71    3.10000000E+01 Hartree
             ecut81    3.20000000E+01 Hartree
             ecut91    3.30000000E+01 Hartree
             ecut101   3.40000000E+01 Hartree
             ecut111   3.50000000E+01 Hartree
             ecut121   3.60000000E+01 Hartree
             ecut131   3.70000000E+01 Hartree
             ecut141   3.80000000E+01 Hartree
             ecut151   3.90000000E+01 Hartree
             ecut161   4.00000000E+01 Hartree
             ecut171   4.10000000E+01 Hartree
             ecut181   4.20000000E+01 Hartree
             ecut191   4.30000000E+01 Hartree
             ecut201   4.40000000E+01 Hartree
             ecut211   4.50000000E+01 Hartree
             ecut221   4.60000000E+01 Hartree
             ecut231   4.70000000E+01 Hartree
             ecut241   4.80000000E+01 Hartree
             ecut251   4.90000000E+01 Hartree
           enunit           1
           etotal11   -1.8152907886E+02
           etotal21   -1.8176144823E+02
           etotal31   -1.8192829005E+02
           etotal41   -1.8204235967E+02
           etotal51   -1.8212315380E+02
           etotal61   -1.8217727372E+02
           etotal71   -1.8221225819E+02
           etotal81   -1.8223453456E+02
           etotal91   -1.8224791811E+02
           etotal101  -1.8225638709E+02
           etotal111  -1.8226107721E+02
           etotal121  -1.8226364176E+02
           etotal131  -1.8226494325E+02
           etotal141  -1.8226556194E+02
           etotal151  -1.8226584975E+02
           etotal161  -1.8226595830E+02
           etotal171  -1.8226599366E+02
           etotal181  -1.8226600228E+02
           etotal191  -1.8226600485E+02
           etotal201  -1.8226600815E+02
           etotal211  -1.8226601273E+02
           etotal221  -1.8226601764E+02
           etotal231  -1.8226602173E+02
           etotal241  -1.8226602478E+02
           etotal251  -1.8226602692E+02
            fcart11   -4.2167293306E-28 -4.2167293306E-28  1.2650187992E-27
                       4.2167293306E-28  4.2167293306E-28 -1.2650187992E-27
            fcart21    8.4334586611E-28  8.4334586611E-28 -2.5300375983E-27
                      -8.4334586611E-28 -8.4334586611E-28  2.5300375983E-27
            fcart31   -8.4334586611E-28 -8.4334586611E-28  2.5300375983E-27
                       8.4334586611E-28  8.4334586611E-28 -2.5300375983E-27
            fcart41    5.2709116632E-29  5.2709116632E-29 -1.5812734990E-28
                      -5.2709116632E-29 -5.2709116632E-29  1.5812734990E-28
            fcart51    0.0000000000E+00  0.0000000000E+00  0.0000000000E+00
                       0.0000000000E+00  0.0000000000E+00  0.0000000000E+00
            fcart61    4.2167293306E-28  4.2167293306E-28 -1.2650187992E-27
                      -4.2167293306E-28 -4.2167293306E-28  1.2650187992E-27
            fcart71    0.0000000000E+00  0.0000000000E+00  0.0000000000E+00
                       0.0000000000E+00  0.0000000000E+00  0.0000000000E+00
            fcart81    2.1083646653E-28  2.1083646653E-28 -6.3250939959E-28
                      -2.1083646653E-28 -2.1083646653E-28  6.3250939959E-28
            fcart91    0.0000000000E+00  0.0000000000E+00  0.0000000000E+00
                       0.0000000000E+00  0.0000000000E+00  0.0000000000E+00
            fcart101   0.0000000000E+00  0.0000000000E+00  0.0000000000E+00
                       0.0000000000E+00  0.0000000000E+00  0.0000000000E+00
            fcart111  -2.1083646653E-28 -2.1083646653E-28  6.3250939959E-28
                       2.1083646653E-28  2.1083646653E-28 -6.3250939959E-28
            fcart121   0.0000000000E+00  0.0000000000E+00  0.0000000000E+00
                       0.0000000000E+00  0.0000000000E+00  0.0000000000E+00
            fcart131  -4.2167293306E-28 -4.2167293306E-28  1.2650187992E-27
                       4.2167293306E-28  4.2167293306E-28 -1.2650187992E-27
            fcart141   0.0000000000E+00  0.0000000000E+00  0.0000000000E+00
                       0.0000000000E+00  0.0000000000E+00  0.0000000000E+00
            fcart151   0.0000000000E+00  0.0000000000E+00  0.0000000000E+00
                       0.0000000000E+00  0.0000000000E+00  0.0000000000E+00
            fcart161   0.0000000000E+00  0.0000000000E+00  0.0000000000E+00
                       0.0000000000E+00  0.0000000000E+00  0.0000000000E+00
            fcart171   0.0000000000E+00  0.0000000000E+00  0.0000000000E+00
                       0.0000000000E+00  0.0000000000E+00  0.0000000000E+00
            fcart181   5.2709116632E-29  5.2709116632E-29 -1.5812734990E-28
                      -5.2709116632E-29 -5.2709116632E-29  1.5812734990E-28
            fcart191   2.1083646653E-28  2.1083646653E-28 -6.3250939959E-28
                      -2.1083646653E-28 -2.1083646653E-28  6.3250939959E-28
            fcart201   2.1083646653E-28  2.1083646653E-28 -6.3250939959E-28
                      -2.1083646653E-28 -2.1083646653E-28  6.3250939959E-28
            fcart211   5.2709116632E-29  5.2709116632E-29 -1.5812734990E-28
                      -5.2709116632E-29 -5.2709116632E-29  1.5812734990E-28
            fcart221   0.0000000000E+00  0.0000000000E+00  0.0000000000E+00
                       0.0000000000E+00  0.0000000000E+00  0.0000000000E+00
            fcart231  -2.1083646653E-28 -2.1083646653E-28  6.3250939959E-28
                       2.1083646653E-28  2.1083646653E-28 -6.3250939959E-28
            fcart241   1.0541823326E-28  1.0541823326E-28 -3.1625469979E-28
                      -1.0541823326E-28 -1.0541823326E-28  3.1625469979E-28
            fcart251   1.0541823326E-28  1.0541823326E-28 -3.1625469979E-28
                      -1.0541823326E-28 -1.0541823326E-28  3.1625469979E-28
-          fftalg         112
           istwfk        2    0    0    3    0    0    0    0    0    0
                         0    0    7    0    0    0
              ixc     -116133
           jdtset       11   21   31   41   51   61   71   81   91  101
                       111  121  131  141  151  161  171  181  191  201
                       211  221  231  241  251
              kpt      0.00000000E+00  0.00000000E+00  0.00000000E+00
                       1.66666667E-01  0.00000000E+00  0.00000000E+00
                       3.33333333E-01  0.00000000E+00  0.00000000E+00
                       5.00000000E-01  0.00000000E+00  0.00000000E+00
                       1.66666667E-01  1.66666667E-01  0.00000000E+00
                       3.33333333E-01  1.66666667E-01  0.00000000E+00
                       5.00000000E-01  1.66666667E-01  0.00000000E+00
                      -3.33333333E-01  1.66666667E-01  0.00000000E+00
                      -1.66666667E-01  1.66666667E-01  0.00000000E+00
                       3.33333333E-01  3.33333333E-01  0.00000000E+00
                       5.00000000E-01  3.33333333E-01  0.00000000E+00
                      -3.33333333E-01  3.33333333E-01  0.00000000E+00
                       5.00000000E-01  5.00000000E-01  0.00000000E+00
                       5.00000000E-01  3.33333333E-01  1.66666667E-01
                      -3.33333333E-01  3.33333333E-01  1.66666667E-01
                      -3.33333333E-01  5.00000000E-01  1.66666667E-01
         kptrlatt        6    0    0      0    6    0      0    0    6
          kptrlen      4.33470599E+01
P           mkmem          16
            natom           2
            nband          15
           ndtset          25
           ndivsm          20
            ngfft11        36      36      36
            ngfft21        36      36      36
            ngfft31        36      36      36
            ngfft41        36      36      36
            ngfft51        36      36      36
            ngfft61        36      36      36
            ngfft71        40      40      40
            ngfft81        40      40      40
            ngfft91        40      40      40
            ngfft101       40      40      40
            ngfft111       40      40      40
            ngfft121       40      40      40
            ngfft131       40      40      40
            ngfft141       45      45      45
            ngfft151       45      45      45
            ngfft161       45      45      45
            ngfft171       45      45      45
            ngfft181       45      45      45
            ngfft191       45      45      45
            ngfft201       45      45      45
            ngfft211       45      45      45
            ngfft221       48      48      48
            ngfft231       48      48      48
            ngfft241       48      48      48
            ngfft251       48      48      48
             nkpt          16
            nstep          20
             nsym          24
           ntypat           2
              occ      2.000000  2.000000  2.000000  2.000000  2.000000  2.000000
                       2.000000  2.000000  2.000000  2.000000  2.000000  2.000000
                       2.000000  2.000000  0.000000
            rprim      0.0000000000E+00  5.0000000000E-01  5.0000000000E-01
                       5.0000000000E-01  0.0000000000E+00  5.0000000000E-01
                       5.0000000000E-01  5.0000000000E-01  0.0000000000E+00
          spgroup         216
           strten11    1.6349578683E-02  1.6349578683E-02  1.6349578683E-02
                       0.0000000000E+00  0.0000000000E+00  0.0000000000E+00
           strten21    1.2234526641E-02  1.2234526641E-02  1.2234526641E-02
                       0.0000000000E+00  0.0000000000E+00  0.0000000000E+00
           strten31    8.8947422307E-03  8.8947422307E-03  8.8947422307E-03
                       0.0000000000E+00  0.0000000000E+00  0.0000000000E+00
           strten41    6.3330770700E-03  6.3330770700E-03  6.3330770700E-03
                       0.0000000000E+00  0.0000000000E+00  0.0000000000E+00
           strten51    4.3078560047E-03  4.3078560047E-03  4.3078560047E-03
                       0.0000000000E+00  0.0000000000E+00  0.0000000000E+00
           strten61    2.7957246511E-03  2.7957246511E-03  2.7957246511E-03
                       0.0000000000E+00  0.0000000000E+00  0.0000000000E+00
           strten71    1.7099673338E-03  1.7099673338E-03  1.7099673338E-03
                       0.0000000000E+00  0.0000000000E+00  0.0000000000E+00
           strten81    9.4239512630E-04  9.4239512630E-04  9.4239512630E-04
                       0.0000000000E+00  0.0000000000E+00  0.0000000000E+00
           strten91    4.3072903377E-04  4.3072903377E-04  4.3072903377E-04
                       0.0000000000E+00  0.0000000000E+00  0.0000000000E+00
           strten101   7.2058055045E-05  7.2058055045E-05  7.2058055045E-05
                       0.0000000000E+00  0.0000000000E+00  0.0000000000E+00
           strten111  -1.5054174984E-04 -1.5054174984E-04 -1.5054174984E-04
                       0.0000000000E+00  0.0000000000E+00  0.0000000000E+00
           strten121  -2.8765599072E-04 -2.8765599072E-04 -2.8765599072E-04
                       0.0000000000E+00  0.0000000000E+00  0.0000000000E+00
           strten131  -3.6470045916E-04 -3.6470045916E-04 -3.6470045916E-04
                       0.0000000000E+00  0.0000000000E+00  0.0000000000E+00
           strten141  -4.0949520516E-04 -4.0949520516E-04 -4.0949520516E-04
                       0.0000000000E+00  0.0000000000E+00  0.0000000000E+00
           strten151  -4.3300462867E-04 -4.3300462867E-04 -4.3300462867E-04
                       0.0000000000E+00  0.0000000000E+00  0.0000000000E+00
           strten161  -4.4387566126E-04 -4.4387566126E-04 -4.4387566126E-04
                       0.0000000000E+00  0.0000000000E+00  0.0000000000E+00
           strten171  -4.4815765564E-04 -4.4815765564E-04 -4.4815765564E-04
                       0.0000000000E+00  0.0000000000E+00  0.0000000000E+00
           strten181  -4.4968178947E-04 -4.4968178947E-04 -4.4968178947E-04
                       0.0000000000E+00  0.0000000000E+00  0.0000000000E+00
           strten191  -4.4948687319E-04 -4.4948687319E-04 -4.4948687319E-04
                       0.0000000000E+00  0.0000000000E+00  0.0000000000E+00
           strten201  -4.4934539471E-04 -4.4934539471E-04 -4.4934539471E-04
                       0.0000000000E+00  0.0000000000E+00  0.0000000000E+00
           strten211  -4.4950784847E-04 -4.4950784847E-04 -4.4950784847E-04
                       0.0000000000E+00  0.0000000000E+00  0.0000000000E+00
           strten221  -4.4895430065E-04 -4.4895430065E-04 -4.4895430065E-04
                       0.0000000000E+00  0.0000000000E+00  0.0000000000E+00
           strten231  -4.4940260504E-04 -4.4940260504E-04 -4.4940260504E-04
                       0.0000000000E+00  0.0000000000E+00  0.0000000000E+00
           strten241  -4.4973653191E-04 -4.4973653191E-04 -4.4973653191E-04
                       0.0000000000E+00  0.0000000000E+00  0.0000000000E+00
           strten251  -4.4978665933E-04 -4.4978665933E-04 -4.4978665933E-04
                       0.0000000000E+00  0.0000000000E+00  0.0000000000E+00
           symrel      1  0  0   0  1  0   0  0  1       0 -1  1   0 -1  0   1 -1  0
                      -1  0  0  -1  0  1  -1  1  0       0  1 -1   1  0 -1   0  0 -1
                      -1  0  0  -1  1  0  -1  0  1       0 -1  1   1 -1  0   0 -1  0
                       1  0  0   0  0  1   0  1  0       0  1 -1   0  0 -1   1  0 -1
                      -1  0  1  -1  1  0  -1  0  0       0 -1  0   1 -1  0   0 -1  1
                       1  0 -1   0  0 -1   0  1 -1       0  1  0   0  0  1   1  0  0
                       1  0 -1   0  1 -1   0  0 -1       0 -1  0   0 -1  1   1 -1  0
                      -1  0  1  -1  0  0  -1  1  0       0  1  0   1  0  0   0  0  1
                       0  0 -1   0  1 -1   1  0 -1       1 -1  0   0 -1  1   0 -1  0
                       0  0  1   1  0  0   0  1  0      -1  1  0  -1  0  0  -1  0  1
                       0  0  1   0  1  0   1  0  0       1 -1  0   0 -1  0   0 -1  1
                       0  0 -1   1  0 -1   0  1 -1      -1  1  0  -1  0  1  -1  0  0
           toldfe      1.00000000E-06 Hartree
            typat      1  2
              wtk        0.00463    0.03704    0.03704    0.01852    0.02778    0.11111
                         0.11111    0.11111    0.05556    0.02778    0.11111    0.05556
                         0.01389    0.11111    0.11111    0.05556
           xangst      0.0000000000E+00  0.0000000000E+00  0.0000000000E+00
                       1.3516508850E+00  1.3516508850E+00  1.3516508850E+00
            xcart      0.0000000000E+00  0.0000000000E+00  0.0000000000E+00
                       2.5542500000E+00  2.5542500000E+00  2.5542500000E+00
             xred      0.0000000000E+00  0.0000000000E+00  0.0000000000E+00
                       2.5000000000E-01  2.5000000000E-01  2.5000000000E-01
            znucl       31.00000   33.00000

- Timing analysis has been suppressed with timopt=0

 Suggested references for the acknowledgment of ABINIT usage.

 Calculation completed.
.Delivered   0 WARNINGs and  86 COMMENTs to log file.