.Version 10.0.3 of ABINIT, released Apr 2024.

 ABINIT is a project of the Universite Catholique de Louvain,
 Corning Inc. and other collaborators, see ~abinit/doc/developers/contributors.txt .
 acknowledgments of the ABINIT effort.

.Starting date : Fri 24 May 2024.
- ( at 02h05 )

- input  file    -> acell.abi
- output file    -> acell.abo
- root for input  files -> acelli
- root for output files -> acello

 DATASET    1 : space group F-4 3 m (#216); Bravais cF (face-center cubic)
     intxc =       0    ionmov =       2      iscf =       7    lmnmax =       8
     lnmax =       8     mgfft =      45  mpssoang =       3    mqgrid =    3001
     natom =       2  nloc_mem =       1    nspden =       1   nspinor =       1
    nsppol =       1      nsym =      24    n1xccc =    2501    ntypat =       2
    occopt =       1   xclevel =       2
-    mband =          15        mffmem =           1         mkmem =          10
       mpw =        3479          nfft =       91125          nkpt =          10
  Rough estimation (10% accuracy) of disk space for files :

------------- Echo of variables that govern the present computation ------------
-
- outvars: echo of selected default values
-   iomode0 =  0 , fftalg0 =112 , wfoptalg0 =  0
-
- outvars: echo of global parameters not present in the input file
-  max_nthreads =    6
-
 -outvars: echo values of preprocessed input variables --------
            acell      1.0217000000E+01  1.0217000000E+01  1.0217000000E+01 Bohr
              amu      6.97230000E+01  7.49215900E+01
           diemac      1.20000000E+01
          dilatmx      1.05000000E+00
             ecut      3.80000000E+01 Hartree
           ecutsm      5.00000000E-01 Hartree
           enunit           1
-          fftalg         112
           ionmov           2
           istwfk        2    0    0    0    0    0    0    0    0    0
              ixc     -116133
           jdtset        1
              kpt      0.00000000E+00  0.00000000E+00  0.00000000E+00
                       2.00000000E-01  0.00000000E+00  0.00000000E+00
                       4.00000000E-01  0.00000000E+00  0.00000000E+00
                       2.00000000E-01  2.00000000E-01  0.00000000E+00
                       4.00000000E-01  2.00000000E-01  0.00000000E+00
                      -4.00000000E-01  2.00000000E-01  0.00000000E+00
                      -2.00000000E-01  2.00000000E-01  0.00000000E+00
                       4.00000000E-01  4.00000000E-01  0.00000000E+00
                      -4.00000000E-01  4.00000000E-01  0.00000000E+00
                      -4.00000000E-01  4.00000000E-01  2.00000000E-01
         kptrlatt        5    0    0      0    5    0      0    0    5
          kptrlen      3.61225499E+01
P           mkmem          10
            natom           2
            nband          15
           ndtset           1
           ndivsm          20
            ngfft          45      45      45
             nkpt          10
            nstep          20
             nsym          24
            ntime          10
           ntypat           2
              occ      2.000000  2.000000  2.000000  2.000000  2.000000  2.000000
                       2.000000  2.000000  2.000000  2.000000  2.000000  2.000000
                       2.000000  2.000000  0.000000
          optcell           1
            rprim      0.0000000000E+00  5.0000000000E-01  5.0000000000E-01
                       5.0000000000E-01  0.0000000000E+00  5.0000000000E-01
                       5.0000000000E-01  5.0000000000E-01  0.0000000000E+00
          spgroup         216
           symrel      1  0  0   0  1  0   0  0  1       0 -1  1   0 -1  0   1 -1  0
                      -1  0  0  -1  0  1  -1  1  0       0  1 -1   1  0 -1   0  0 -1
                      -1  0  0  -1  1  0  -1  0  1       0 -1  1   1 -1  0   0 -1  0
                       1  0  0   0  0  1   0  1  0       0  1 -1   0  0 -1   1  0 -1
                      -1  0  1  -1  1  0  -1  0  0       0 -1  0   1 -1  0   0 -1  1
                       1  0 -1   0  0 -1   0  1 -1       0  1  0   0  0  1   1  0  0
                       1  0 -1   0  1 -1   0  0 -1       0 -1  0   0 -1  1   1 -1  0
                      -1  0  1  -1  0  0  -1  1  0       0  1  0   1  0  0   0  0  1
                       0  0 -1   0  1 -1   1  0 -1       1 -1  0   0 -1  1   0 -1  0
                       0  0  1   1  0  0   0  1  0      -1  1  0  -1  0  0  -1  0  1
                       0  0  1   0  1  0   1  0  0       1 -1  0   0 -1  0   0 -1  1
                       0  0 -1   1  0 -1   0  1 -1      -1  1  0  -1  0  1  -1  0  0
           toldfe      1.00000000E-06 Hartree
            typat      1  2
              wtk        0.00800    0.06400    0.06400    0.04800    0.19200    0.19200
                         0.09600    0.04800    0.09600    0.19200
           xangst      0.0000000000E+00  0.0000000000E+00  0.0000000000E+00
                       1.3516508850E+00  1.3516508850E+00  1.3516508850E+00
            xcart      0.0000000000E+00  0.0000000000E+00  0.0000000000E+00
                       2.5542500000E+00  2.5542500000E+00  2.5542500000E+00
             xred      0.0000000000E+00  0.0000000000E+00  0.0000000000E+00
                       2.5000000000E-01  2.5000000000E-01  2.5000000000E-01
            znucl       31.00000   33.00000

 chkinp: Checking input parameters for consistency, jdtset=   1.

== DATASET  1 ==================================================================
-   mpi_nproc: 1, omp_nthreads: 1 (-1 if OMP is not activated)

--- !DatasetInfo
iteration_state: {dtset: 1, }
dimensions: {natom: 2, nkpt: 10, mband: 15, nsppol: 1, nspinor: 1, nspden: 1, mpw: 3479, }
cutoff_energies: {ecut:  38.0, pawecutdg:  -1.0, }
electrons: {nelect:   2.80000000E+01, charge:   0.00000000E+00, occopt:   1.00000000E+00, tsmear:   1.00000000E-02, }
meta: {optdriver: 0, ionmov: 2, optcell: 1, iscf: 7, paral_kgb: 0, }
...

 Real(R)+Recip(G) space primitive vectors, cartesian coordinates (Bohr,Bohr^-1):
 R(1)=  0.0000000  5.1085000  5.1085000  G(1)= -0.0978761  0.0978761  0.0978761
 R(2)=  5.1085000  0.0000000  5.1085000  G(2)=  0.0978761 -0.0978761  0.0978761
 R(3)=  5.1085000  5.1085000  0.0000000  G(3)=  0.0978761  0.0978761 -0.0978761
 Unit cell volume ucvol=  2.6663072E+02 bohr^3
 Angles (23,13,12)=  6.00000000E+01  6.00000000E+01  6.00000000E+01 degrees

 getcut: wavevector=  0.0000  0.0000  0.0000  ngfft=  45  45  45
         ecut(hartree)=     41.895   => boxcut(ratio)=   2.09025

--- Pseudopotential description ------------------------------------------------
- pspini: atom type   1  psp file is Ga.psp8
- pspatm: opening atomic psp file    Ga.psp8
- Ga    ONCVPSP-3.3.0  r_core=   1.66857   1.75011   1.90252
- 31.00000  13.00000    180430                znucl, zion, pspdat
    8 -116133    2    4       600   0.00000   pspcod,pspxc,lmax,lloc,mmax,r2well
    5.99000000000000    5.00000000000000    0.00000000000000   rchrg,fchrg,qchrg
     nproj     2     4     2
     spin-orbit psp, extension_switch     3
        nprojso     4     3
  pspatm : epsatm=   24.51314239
         --- l  ekb(1:nproj) -->
             0    1.158767    7.056324
             1    6.883841    1.296077    0.006208    0.000035
             2   -8.367207   -2.818603
  spin-orbit 1
  spin-orbit 1
  spin-orbit 1
  spin-orbit 1
  spin-orbit 2
  spin-orbit 2
  spin-orbit 2
 pspatm: atomic psp has been read  and splines computed

- pspini: atom type   2  psp file is As.psp8
- pspatm: opening atomic psp file    As.psp8
- As    ONCVPSP-3.3.0  r_core=   1.76603   1.70395   1.80867
- 33.00000  15.00000    180430                znucl, zion, pspdat
    8 -116133    2    4       600   0.00000   pspcod,pspxc,lmax,lloc,mmax,r2well
    5.99000000000000    5.00000000000000    0.00000000000000   rchrg,fchrg,qchrg
     nproj     2     4     2
     spin-orbit psp, extension_switch     3
        nprojso     4     3
  pspatm : epsatm=   28.79443881
         --- l  ekb(1:nproj) -->
             0    0.868725    8.270752
             1    4.918619    0.757526    0.005498    0.000037
             2  -10.046656   -4.075565
  spin-orbit 1
  spin-orbit 1
  spin-orbit 1
  spin-orbit 1
  spin-orbit 2
  spin-orbit 2
  spin-orbit 2
 pspatm: atomic psp has been read  and splines computed

   1.49261227E+03                                ecore*ucvol(ha*bohr**3)

_setup2: Arith. and geom. avg. npw (full set) are    3450.104    3450.060

=== [ionmov= 2] Broyden-Fletcher-Goldfard-Shanno method (forces)

--- Iteration: ( 1/10) Internal Cycle: (1/1)

---SELF-CONSISTENT-FIELD CONVERGENCE--------------------------------------------

--- !BeginCycle
iteration_state: {dtset: 1, itime: 1, icycle: 1, }
solver: {iscf: 7, nstep: 20, nline: 4, wfoptalg: 0, }
tolerances: {toldfe: 1.00E-06, }
...

     iter   Etot(hartree)      deltaE(h)  residm     vres2
 ETOT  1  -174.43909692700    -1.744E+02 8.364E-01 1.549E+04
 ETOT  2  -179.58700624454    -5.148E+00 6.046E-01 2.525E+04
 ETOT  3  -181.79454009000    -2.208E+00 3.537E-02 4.424E+03
 ETOT  4  -182.03028083137    -2.357E-01 6.936E-03 2.240E+03
 ETOT  5  -182.15955573689    -1.293E-01 3.617E-03 9.871E+02
 ETOT  6  -182.23859750088    -7.904E-02 5.788E-04 2.339E+02
 ETOT  7  -182.26358073020    -2.498E-02 6.410E-04 2.706E+00
 ETOT  8  -182.26346462374     1.161E-04 5.879E-05 3.827E+00
 ETOT  9  -182.26389288948    -4.283E-04 4.400E-05 6.686E-03
 ETOT 10  -182.26389397946    -1.090E-06 1.100E-05 8.957E-06
 ETOT 11  -182.26389397772     1.748E-09 3.542E-06 5.124E-05
 ETOT 12  -182.26389398512    -7.407E-09 1.760E-06 1.485E-07

 At SCF step   12, etot is converged :
  for the second time, diff in etot=  7.407E-09 < toldfe=  1.000E-06

 Cartesian components of stress tensor (hartree/bohr^3)
  sigma(1 1)= -4.52069975E-04  sigma(3 2)=  0.00000000E+00
  sigma(2 2)= -4.52069975E-04  sigma(3 1)=  0.00000000E+00
  sigma(3 3)= -4.52069975E-04  sigma(2 1)=  0.00000000E+00

--- !ResultsGS
iteration_state: {dtset: 1, itime: 1, icycle: 1, }
comment   : Summary of ground state results
lattice_vectors:
- [  0.0000000,   5.1085000,   5.1085000, ]
- [  5.1085000,   0.0000000,   5.1085000, ]
- [  5.1085000,   5.1085000,   0.0000000, ]
lattice_lengths: [   7.22451,    7.22451,    7.22451, ]
lattice_angles: [ 60.000,  60.000,  60.000, ] # degrees, (23, 13, 12)
lattice_volume:   2.6663072E+02
convergence: {deltae: -7.407E-09, res2:  1.485E-07, residm:  1.760E-06, diffor: null, }
etotal    :  -1.82263894E+02
entropy   :   0.00000000E+00
fermie    :   1.94620024E-01
cartesian_stress_tensor: # hartree/bohr^3
- [ -4.52069975E-04,   0.00000000E+00,   0.00000000E+00, ]
- [  0.00000000E+00,  -4.52069975E-04,   0.00000000E+00, ]
- [  0.00000000E+00,   0.00000000E+00,  -4.52069975E-04, ]
pressure_GPa:   1.3300E+01
xred      :
- [  0.0000E+00,   0.0000E+00,   0.0000E+00, Ga]
- [  2.5000E-01,   2.5000E-01,   2.5000E-01, As]
cartesian_forces: # hartree/bohr
- [  0.00000000E+00,   0.00000000E+00,   0.00000000E+00, ]
- [  0.00000000E+00,   0.00000000E+00,   0.00000000E+00, ]
force_length_stats: {min:   0.00000000E+00, max:   0.00000000E+00, mean:   0.00000000E+00, }
...

 Integrated electronic density in atomic spheres:
 Atom  Sphere_radius  Integrated_density
    1        2.00000         10.91527915
    2        2.00000         12.46074150

---OUTPUT-----------------------------------------------------------------------

 Cartesian coordinates (xcart) [bohr]
  0.00000000000000E+00  0.00000000000000E+00  0.00000000000000E+00
  2.55425000000000E+00  2.55425000000000E+00  2.55425000000000E+00
 Reduced coordinates (xred)
  0.00000000000000E+00  0.00000000000000E+00  0.00000000000000E+00
  2.50000000000000E-01  2.50000000000000E-01  2.50000000000000E-01
 Cartesian forces (fcart) [Ha/bohr]; max,rms= 0.00000E+00 0.00000E+00 (free atoms)
  0.00000000000000E+00  0.00000000000000E+00  0.00000000000000E+00
  0.00000000000000E+00  0.00000000000000E+00  0.00000000000000E+00
 Gradient of E wrt nuclear positions in reduced coordinates (gred)
  0.00000000000000E+00  0.00000000000000E+00  0.00000000000000E+00
  0.00000000000000E+00  0.00000000000000E+00  0.00000000000000E+00
 Scale of Primitive Cell (acell) [bohr]
  1.02170000000000E+01  1.02170000000000E+01  1.02170000000000E+01
 Real space primitive translations (rprimd) [bohr]
  0.00000000000000E+00  5.10850000000000E+00  5.10850000000000E+00
  5.10850000000000E+00  0.00000000000000E+00  5.10850000000000E+00
  5.10850000000000E+00  5.10850000000000E+00  0.00000000000000E+00
 Unitary Cell Volume (ucvol) [Bohr^3]=  2.66630722078250E+02
 Angles (23,13,12)= [degrees]
  6.00000000000000E+01  6.00000000000000E+01  6.00000000000000E+01
 Lengths [Bohr]
  7.22450998338296E+00  7.22450998338296E+00  7.22450998338296E+00
 Stress tensor in cartesian coordinates (strten) [Ha/bohr^3]
 -4.52069974897197E-04  0.00000000000000E+00  0.00000000000000E+00
  0.00000000000000E+00 -4.52069974897197E-04  0.00000000000000E+00
  0.00000000000000E+00  0.00000000000000E+00 -4.52069974897194E-04
 Total energy (etotal) [Ha]= -1.82263893985123E+02

[...]

 Difference of energy with previous step (new-old):
           Absolute (Ha)=-4.08162E-03
           Relative     =-2.23938E-05

[...]

 Difference of energy with previous step (new-old):
           Absolute (Ha)= 3.18190E-07
           Relative     = 1.74569E-09

[...]

--- Iteration: ( 9/10) Internal Cycle: (1/1)

[...]

 Difference of energy with previous step (new-old):
           Absolute (Ha)= 7.44940E-06
           Relative     = 4.08697E-08

--- Iteration: (10/10) Internal Cycle: (1/1)

---SELF-CONSISTENT-FIELD CONVERGENCE--------------------------------------------

--- !BeginCycle
iteration_state: {dtset: 1, itime: 10, icycle: 1, }
solver: {iscf: 7, nstep: 20, nline: 4, wfoptalg: 0, }
tolerances: {toldfe: 1.00E-06, }
...

     iter   Etot(hartree)      deltaE(h)  residm     vres2
 ETOT  1  -182.27134527812    -1.823E+02 1.344E-04 5.585E+00
 ETOT  2  -182.27179848960    -4.532E-04 7.025E-06 1.981E-01
 ETOT  3  -182.27182708454    -2.859E-05 9.726E-07 3.964E-02
 ETOT  4  -182.27183018959    -3.105E-06 7.848E-06 1.563E-03
 ETOT  5  -182.27183037720    -1.876E-07 1.840E-07 1.313E-04
 ETOT  6  -182.27183038716    -9.964E-09 1.676E-07 7.734E-07

 At SCF step    6, etot is converged :
  for the second time, diff in etot=  9.964E-09 < toldfe=  1.000E-06

[...]

--- !ResultsGS
iteration_state: {dtset: 1, itime: 10, icycle: 1, }
comment   : Summary of ground state results
lattice_vectors:
- [  0.0000000,   5.3516432,   5.3516432, ]
- [  5.3516432,   0.0000000,   5.3516432, ]
- [  5.3516432,   5.3516432,   0.0000000, ]
lattice_lengths: [   7.56837,    7.56837,    7.56837, ]
lattice_angles: [ 60.000,  60.000,  60.000, ] # degrees, (23, 13, 12)
lattice_volume:   3.0654304E+02
convergence: {deltae: -9.964E-09, res2:  7.734E-07, residm:  1.676E-07, diffor: null, }
etotal    :  -1.82271830E+02
entropy   :   0.00000000E+00
fermie    :   1.42645452E-01
cartesian_stress_tensor: # hartree/bohr^3
- [  1.18541841E-06,   0.00000000E+00,   0.00000000E+00, ]
- [  0.00000000E+00,   1.18541841E-06,   0.00000000E+00, ]
- [  0.00000000E+00,   0.00000000E+00,   1.18541841E-06, ]
pressure_GPa:  -3.4876E-02
xred      :
- [ -9.3486E-29,  -9.3486E-29,   1.5581E-28, Ga]
- [  2.5000E-01,   2.5000E-01,   2.5000E-01, As]
cartesian_forces: # hartree/bohr
- [  0.00000000E+00,   0.00000000E+00,   0.00000000E+00, ]
- [  0.00000000E+00,   0.00000000E+00,   0.00000000E+00, ]
force_length_stats: {min:   0.00000000E+00, max:   0.00000000E+00, mean:   0.00000000E+00, }
...

 Integrated electronic density in atomic spheres:
 Atom  Sphere_radius  Integrated_density
    1        2.00000         10.82304183
    2        2.00000         12.38089636

---OUTPUT-----------------------------------------------------------------------

 Cartesian coordinates (xcart) [bohr]
  3.33536332879407E-28  3.33536332879408E-28 -1.00060899863822E-27
  2.67582161395338E+00  2.67582161395338E+00  2.67582161395338E+00
 Reduced coordinates (xred)
 -9.34861458458619E-29 -9.34861458458621E-29  1.55810243076437E-28
  2.50000000000000E-01  2.50000000000000E-01  2.50000000000000E-01
 Cartesian forces (fcart) [Ha/bohr]; max,rms= 0.00000E+00 0.00000E+00 (free atoms)
  0.00000000000000E+00  0.00000000000000E+00  0.00000000000000E+00
  0.00000000000000E+00  0.00000000000000E+00  0.00000000000000E+00
 Gradient of E wrt nuclear positions in reduced coordinates (gred)
  0.00000000000000E+00  0.00000000000000E+00  0.00000000000000E+00
  0.00000000000000E+00  0.00000000000000E+00  0.00000000000000E+00
 Scale of Primitive Cell (acell) [bohr]
  1.07032864558135E+01  1.07032864558135E+01  1.07032864558135E+01
 Real space primitive translations (rprimd) [bohr]
  0.00000000000000E+00  5.35164322790675E+00  5.35164322790675E+00
  5.35164322790675E+00  0.00000000000000E+00  5.35164322790675E+00
  5.35164322790675E+00  5.35164322790675E+00  0.00000000000000E+00
 Unitary Cell Volume (ucvol) [Bohr^3]=  3.06543036429794E+02
 Angles (23,13,12)= [degrees]
  6.00000000000000E+01  6.00000000000000E+01  6.00000000000000E+01
 Lengths [Bohr]
  7.56836643388786E+00  7.56836643388786E+00  7.56836643388786E+00
 Stress tensor in cartesian coordinates (strten) [Ha/bohr^3]
  1.18541841109474E-06  0.00000000000000E+00  0.00000000000000E+00
  0.00000000000000E+00  1.18541841109474E-06  0.00000000000000E+00
  0.00000000000000E+00  0.00000000000000E+00  1.18541841109474E-06
 Total energy (etotal) [Ha]= -1.82271830387165E+02

 Difference of energy with previous step (new-old):
           Absolute (Ha)=-7.37739E-06
           Relative     =-4.04746E-08

 fconv : WARNING -
  ntime=   10 was not enough Broyd/MD steps to converge gradients:
  max grad (force/stress) = 1.1854E-04 > tolmxf= 5.0000E-05 ha/bohr (free atoms)

 ----iterations are completed or convergence reached----

 Mean square residual over all n,k,spin=   13.781E-10; max=  16.763E-08
 reduced coordinates (array xred) for    2 atoms
      -0.000000000000     -0.000000000000      0.000000000000
       0.250000000000      0.250000000000      0.250000000000
 rms dE/dt=  0.0000E+00; max dE/dt=  0.0000E+00; dE/dt below (all hartree)
    1       0.000000000000      0.000000000000      0.000000000000
    2       0.000000000000      0.000000000000      0.000000000000

 cartesian coordinates (angstrom) at end:
    1      0.00000000000000     0.00000000000000    -0.00000000000000
    2      1.41598381235664     1.41598381235664     1.41598381235664

 cartesian forces (hartree/bohr) at end:
    1      0.00000000000000     0.00000000000000     0.00000000000000
    2      0.00000000000000     0.00000000000000     0.00000000000000
 frms,max,avg= 0.0000000E+00 0.0000000E+00   0.000E+00  0.000E+00  0.000E+00 h/b

 cartesian forces (eV/Angstrom) at end:
    1      0.00000000000000     0.00000000000000     0.00000000000000
    2      0.00000000000000     0.00000000000000     0.00000000000000
 frms,max,avg= 0.0000000E+00 0.0000000E+00   0.000E+00  0.000E+00  0.000E+00 e/A
 length scales= 10.703286455814 10.703286455814 10.703286455814 bohr
              =  5.663935249427  5.663935249427  5.663935249427 angstroms
 prteigrs : about to open file acello_DS1_EIG
 Fermi (or HOMO) energy (eV) =   3.88158   Average Vxc (eV)= -10.14909
 Eigenvalues (   eV  ) for nkpt=  10  k points:
 kpt#   1, nband= 15, wtk=  0.00800, kpt=  0.0000  0.0000  0.0000 (reduced coord)
 -31.30201  -31.30201  -31.30201  -31.29250  -31.29250  -10.93568  -10.93568  -10.93568
 -10.85909  -10.85909   -8.83279    3.88158    3.88158    3.88158    4.27972
 prteigrs : prtvol=0 or 1, do not print more k-points.

--- !EnergyTerms
iteration_state     : {dtset: 1, itime: 10, icycle: 1, }
comment             : Components of total free energy in Hartree
kinetic             :  1.38773234882858E+02
hartree             :  5.74102085485421E+01
xc                  : -4.42171132908054E+01
Ewald energy        : -9.89971955931688E+01
psp_core            :  4.86917690561855E+00
local_psp           : -1.49867178458921E+02
non_local_psp       : -9.02429633812873E+01
total_energy        : -1.82271830387165E+02
total_energy_eV     : -4.95986874352995E+03
band_energy         : -1.59219346395136E+01
...

 Cartesian components of stress tensor (hartree/bohr^3)
  sigma(1 1)=  1.18541841E-06  sigma(3 2)=  0.00000000E+00
  sigma(2 2)=  1.18541841E-06  sigma(3 1)=  0.00000000E+00
  sigma(3 3)=  1.18541841E-06  sigma(2 1)=  0.00000000E+00

-Cartesian components of stress tensor (GPa)         [Pressure= -3.4876E-02 GPa]
- sigma(1 1)=  3.48762079E-02  sigma(3 2)=  0.00000000E+00
- sigma(2 2)=  3.48762079E-02  sigma(3 1)=  0.00000000E+00
- sigma(3 3)=  3.48762079E-02  sigma(2 1)=  0.00000000E+00

== END DATASET(S) ==============================================================

 -outvars: echo values of variables after computation  --------
            acell      1.0703286456E+01  1.0703286456E+01  1.0703286456E+01 Bohr
              amu      6.97230000E+01  7.49215900E+01
           diemac      1.20000000E+01
          dilatmx      1.05000000E+00
             ecut      3.80000000E+01 Hartree
           ecutsm      5.00000000E-01 Hartree
           enunit           1
           etotal1    -1.8227183039E+02
            fcart1     0.0000000000E+00  0.0000000000E+00  0.0000000000E+00
                       0.0000000000E+00  0.0000000000E+00  0.0000000000E+00
-          fftalg         112
           ionmov           2
           istwfk        2    0    0    0    0    0    0    0    0    0
              ixc     -116133
           jdtset        1
              kpt      0.00000000E+00  0.00000000E+00  0.00000000E+00
                       2.00000000E-01  0.00000000E+00  0.00000000E+00
                       4.00000000E-01  0.00000000E+00  0.00000000E+00
                       2.00000000E-01  2.00000000E-01  0.00000000E+00
                       4.00000000E-01  2.00000000E-01  0.00000000E+00
                      -4.00000000E-01  2.00000000E-01  0.00000000E+00
                      -2.00000000E-01  2.00000000E-01  0.00000000E+00
                       4.00000000E-01  4.00000000E-01  0.00000000E+00
                      -4.00000000E-01  4.00000000E-01  0.00000000E+00
                      -4.00000000E-01  4.00000000E-01  2.00000000E-01
         kptrlatt        5    0    0      0    5    0      0    0    5
          kptrlen      3.61225499E+01
P           mkmem          10
            natom           2
            nband          15
           ndtset           1
           ndivsm          20
            ngfft          45      45      45
             nkpt          10
            nstep          20
             nsym          24
            ntime          10
           ntypat           2
              occ      2.000000  2.000000  2.000000  2.000000  2.000000  2.000000
                       2.000000  2.000000  2.000000  2.000000  2.000000  2.000000
                       2.000000  2.000000  0.000000
          optcell           1
            rprim      0.0000000000E+00  5.0000000000E-01  5.0000000000E-01
                       5.0000000000E-01  0.0000000000E+00  5.0000000000E-01
                       5.0000000000E-01  5.0000000000E-01  0.0000000000E+00
          spgroup         216
           strten1     1.1854184111E-06  1.1854184111E-06  1.1854184111E-06
                       0.0000000000E+00  0.0000000000E+00  0.0000000000E+00
           symrel      1  0  0   0  1  0   0  0  1       0 -1  1   0 -1  0   1 -1  0
                      -1  0  0  -1  0  1  -1  1  0       0  1 -1   1  0 -1   0  0 -1
                      -1  0  0  -1  1  0  -1  0  1       0 -1  1   1 -1  0   0 -1  0
                       1  0  0   0  0  1   0  1  0       0  1 -1   0  0 -1   1  0 -1
                      -1  0  1  -1  1  0  -1  0  0       0 -1  0   1 -1  0   0 -1  1
                       1  0 -1   0  0 -1   0  1 -1       0  1  0   0  0  1   1  0  0
                       1  0 -1   0  1 -1   0  0 -1       0 -1  0   0 -1  1   1 -1  0
                      -1  0  1  -1  0  0  -1  1  0       0  1  0   1  0  0   0  0  1
                       0  0 -1   0  1 -1   1  0 -1       1 -1  0   0 -1  1   0 -1  0
                       0  0  1   1  0  0   0  1  0      -1  1  0  -1  0  0  -1  0  1
                       0  0  1   0  1  0   1  0  0       1 -1  0   0 -1  0   0 -1  1
                       0  0 -1   1  0 -1   0  1 -1      -1  1  0  -1  0  1  -1  0  0
           toldfe      1.00000000E-06 Hartree
            typat      1  2
              wtk        0.00800    0.06400    0.06400    0.04800    0.19200    0.19200
                         0.09600    0.04800    0.09600    0.19200
           xangst      1.7649982560E-28  1.7649982560E-28 -5.2949947679E-28
                       1.4159838124E+00  1.4159838124E+00  1.4159838124E+00
            xcart      3.3353633288E-28  3.3353633288E-28 -1.0006089986E-27
                       2.6758216140E+00  2.6758216140E+00  2.6758216140E+00
             xred     -9.3486145846E-29 -9.3486145846E-29  1.5581024308E-28
                       2.5000000000E-01  2.5000000000E-01  2.5000000000E-01
            znucl       31.00000   33.00000

- Timing analysis has been suppressed with timopt=0

 Suggested references for the acknowledgment of ABINIT usage.

 Calculation completed.
.Delivered   1 WARNINGs and   6 COMMENTs to log file.