.Version 10.0.3 of ABINIT, released Apr 2024.

 ABINIT is a project of the Universite Catholique de Louvain,
 Corning Inc. and other collaborators, see ~abinit/doc/developers/contributors.txt .
 acknowledgments of the ABINIT effort.

.Starting date : Thu 23 May 2024.
- ( at 17h03 )

- input  file    -> ecut.abi
- output file    -> ecut.abo
- root for input  files -> ecuti
- root for output files -> ecuto

 DATASET   11 : space group F-4 3 m (#216); Bravais cF (face-center cubic)
     intxc =       0    ionmov =       0      iscf =       7    lmnmax =       8
     lnmax =       8     mgfft =      36  mpssoang =       3    mqgrid =    3001
     natom =       2  nloc_mem =       1    nspden =       1   nspinor =       1
    nsppol =       1      nsym =      24    n1xccc =    2501    ntypat =       2
    occopt =       1   xclevel =       2
-    mband =          15        mffmem =           1         mkmem =          16
       mpw =        1614          nfft =       46656          nkpt =          16
  Rough estimation (10% accuracy) of disk space for files :

[...]

 DATASET  151 : space group F-4 3 m (#216); Bravais cF (face-center cubic)
     intxc =       0    ionmov =       0      iscf =       7    lmnmax =       8
     lnmax =       8     mgfft =      64  mpssoang =       3    mqgrid =    3001
     natom =       2  nloc_mem =       1    nspden =       1   nspinor =       1
    nsppol =       1      nsym =      24    n1xccc =    2501    ntypat =       2
    occopt =       1   xclevel =       2
-    mband =          15        mffmem =           1         mkmem =          16
       mpw =       11833          nfft =      262144          nkpt =          16
  Rough estimation (10% accuracy) of disk space for files :

------------- Echo of variables that govern the present computation ------------
-
- outvars: echo of selected default values
-   iomode0 =  0 , fftalg0 =112 , wfoptalg0 =  0
-
- outvars: echo of global parameters not present in the input file
-  max_nthreads =    6
-
 -outvars: echo values of preprocessed input variables --------
            acell      1.0217000000E+01  1.0217000000E+01  1.0217000000E+01 Bohr
              amu      6.97230000E+01  7.49215900E+01
           diemac      1.20000000E+01
             ecut11    2.50000000E+01 Hartree
             ecut21    3.00000000E+01 Hartree
             ecut31    3.50000000E+01 Hartree
             ecut41    4.00000000E+01 Hartree
             ecut51    4.50000000E+01 Hartree
             ecut61    5.00000000E+01 Hartree
             ecut71    5.50000000E+01 Hartree
             ecut81    6.00000000E+01 Hartree
             ecut91    6.50000000E+01 Hartree
             ecut101   7.00000000E+01 Hartree
             ecut111   7.50000000E+01 Hartree
             ecut121   8.00000000E+01 Hartree
             ecut131   8.50000000E+01 Hartree
             ecut141   9.00000000E+01 Hartree
             ecut151   9.50000000E+01 Hartree
           enunit           1
-          fftalg         112
           istwfk        2    0    0    3    0    0    0    0    0    0
                         0    0    7    0    0    0
              ixc     -116133
           jdtset       11   21   31   41   51   61   71   81   91  101
                       111  121  131  141  151
              kpt      0.00000000E+00  0.00000000E+00  0.00000000E+00
                       1.66666667E-01  0.00000000E+00  0.00000000E+00
                       3.33333333E-01  0.00000000E+00  0.00000000E+00
                       5.00000000E-01  0.00000000E+00  0.00000000E+00
                       1.66666667E-01  1.66666667E-01  0.00000000E+00
                       3.33333333E-01  1.66666667E-01  0.00000000E+00
                       5.00000000E-01  1.66666667E-01  0.00000000E+00
                      -3.33333333E-01  1.66666667E-01  0.00000000E+00
                      -1.66666667E-01  1.66666667E-01  0.00000000E+00
                       3.33333333E-01  3.33333333E-01  0.00000000E+00
                       5.00000000E-01  3.33333333E-01  0.00000000E+00
                      -3.33333333E-01  3.33333333E-01  0.00000000E+00
                       5.00000000E-01  5.00000000E-01  0.00000000E+00
                       5.00000000E-01  3.33333333E-01  1.66666667E-01
                      -3.33333333E-01  3.33333333E-01  1.66666667E-01
                      -3.33333333E-01  5.00000000E-01  1.66666667E-01
         kptrlatt        6    0    0      0    6    0      0    0    6
          kptrlen      4.33470599E+01
P           mkmem          16
            natom           2
            nband          15
           ndtset          15
           ndivsm          20
            ngfft11        36      36      36
            ngfft21        36      36      36
            ngfft31        40      40      40
            ngfft41        45      45      45
            ngfft51        45      45      45
            ngfft61        48      48      48
            ngfft71        50      50      50
            ngfft81        54      54      54
            ngfft91        54      54      54
            ngfft101       60      60      60
            ngfft111       60      60      60
            ngfft121       60      60      60
            ngfft131       60      60      60
            ngfft141       64      64      64
            ngfft151       64      64      64
             nkpt          16
            nstep          20
             nsym          24
           ntypat           2
              occ      2.000000  2.000000  2.000000  2.000000  2.000000  2.000000
                       2.000000  2.000000  2.000000  2.000000  2.000000  2.000000
                       2.000000  2.000000  0.000000
            rprim      0.0000000000E+00  5.0000000000E-01  5.0000000000E-01
                       5.0000000000E-01  0.0000000000E+00  5.0000000000E-01
                       5.0000000000E-01  5.0000000000E-01  0.0000000000E+00
          spgroup         216
           symrel      1  0  0   0  1  0   0  0  1       0 -1  1   0 -1  0   1 -1  0
                      -1  0  0  -1  0  1  -1  1  0       0  1 -1   1  0 -1   0  0 -1
                      -1  0  0  -1  1  0  -1  0  1       0 -1  1   1 -1  0   0 -1  0
                       1  0  0   0  0  1   0  1  0       0  1 -1   0  0 -1   1  0 -1
                      -1  0  1  -1  1  0  -1  0  0       0 -1  0   1 -1  0   0 -1  1
                       1  0 -1   0  0 -1   0  1 -1       0  1  0   0  0  1   1  0  0
                       1  0 -1   0  1 -1   0  0 -1       0 -1  0   0 -1  1   1 -1  0
                      -1  0  1  -1  0  0  -1  1  0       0  1  0   1  0  0   0  0  1
                       0  0 -1   0  1 -1   1  0 -1       1 -1  0   0 -1  1   0 -1  0
                       0  0  1   1  0  0   0  1  0      -1  1  0  -1  0  0  -1  0  1
                       0  0  1   0  1  0   1  0  0       1 -1  0   0 -1  0   0 -1  1
                       0  0 -1   1  0 -1   0  1 -1      -1  1  0  -1  0  1  -1  0  0
           toldfe      1.00000000E-06 Hartree
            typat      1  2
              wtk        0.00463    0.03704    0.03704    0.01852    0.02778    0.11111
                         0.11111    0.11111    0.05556    0.02778    0.11111    0.05556
                         0.01389    0.11111    0.11111    0.05556
           xangst      0.0000000000E+00  0.0000000000E+00  0.0000000000E+00
                       1.3516508850E+00  1.3516508850E+00  1.3516508850E+00
            xcart      0.0000000000E+00  0.0000000000E+00  0.0000000000E+00
                       2.5542500000E+00  2.5542500000E+00  2.5542500000E+00
             xred      0.0000000000E+00  0.0000000000E+00  0.0000000000E+00
                       2.5000000000E-01  2.5000000000E-01  2.5000000000E-01
            znucl       31.00000   33.00000

 chkinp: Checking input parameters for consistency, jdtset=  11.

[...]

 chkinp: Checking input parameters for consistency, jdtset= 151.

== DATASET 11 ==================================================================
-   mpi_nproc: 1, omp_nthreads: 1 (-1 if OMP is not activated)

--- !DatasetInfo
iteration_state: {dtset: 11, }
dimensions: {natom: 2, nkpt: 16, mband: 15, nsppol: 1, nspinor: 1, nspden: 1, mpw: 1614, }
cutoff_energies: {ecut:  25.0, pawecutdg:  -1.0, }
electrons: {nelect:   2.80000000E+01, charge:   0.00000000E+00, occopt:   1.00000000E+00, tsmear:   1.00000000E-02, }
meta: {optdriver: 0, ionmov: 0, optcell: 0, iscf: 7, paral_kgb: 0, }
...

 Real(R)+Recip(G) space primitive vectors, cartesian coordinates (Bohr,Bohr^-1):
 R(1)=  0.0000000  5.1085000  5.1085000  G(1)= -0.0978761  0.0978761  0.0978761
 R(2)=  5.1085000  0.0000000  5.1085000  G(2)=  0.0978761 -0.0978761  0.0978761
 R(3)=  5.1085000  5.1085000  0.0000000  G(3)=  0.0978761  0.0978761 -0.0978761
 Unit cell volume ucvol=  2.6663072E+02 bohr^3
 Angles (23,13,12)=  6.00000000E+01  6.00000000E+01  6.00000000E+01 degrees

 getcut: wavevector=  0.0000  0.0000  0.0000  ngfft=  36  36  36
         ecut(hartree)=     25.000   => boxcut(ratio)=   2.21390

 getcut : COMMENT -
  Note that boxcut > 2.2 ; recall that boxcut=Gcut(box)/Gcut(sphere) = 2
  is sufficient for exact treatment of convolution.
  Such a large boxcut is a waste : you could raise ecut
  e.g. ecut=   30.633595 Hartrees makes boxcut=2

--- Pseudopotential description ------------------------------------------------
- pspini: atom type   1  psp file is Ga.psp8
- pspatm: opening atomic psp file    Ga.psp8
- Ga    ONCVPSP-3.3.0  r_core=   1.66857   1.75011   1.90252
- 31.00000  13.00000    180430                znucl, zion, pspdat
    8 -116133    2    4       600   0.00000   pspcod,pspxc,lmax,lloc,mmax,r2well
    5.99000000000000    5.00000000000000    0.00000000000000   rchrg,fchrg,qchrg
     nproj     2     4     2
     spin-orbit psp, extension_switch     3
        nprojso     4     3
  pspatm : epsatm=   24.51314239
         --- l  ekb(1:nproj) -->
             0    1.158767    7.056324
             1    6.883841    1.296077    0.006208    0.000035
             2   -8.367207   -2.818603
  spin-orbit 1
  spin-orbit 1
  spin-orbit 1
  spin-orbit 1
  spin-orbit 2
  spin-orbit 2
  spin-orbit 2
 pspatm: atomic psp has been read  and splines computed

- pspini: atom type   2  psp file is As.psp8
- pspatm: opening atomic psp file    As.psp8
- As    ONCVPSP-3.3.0  r_core=   1.76603   1.70395   1.80867
- 33.00000  15.00000    180430                znucl, zion, pspdat
    8 -116133    2    4       600   0.00000   pspcod,pspxc,lmax,lloc,mmax,r2well
    5.99000000000000    5.00000000000000    0.00000000000000   rchrg,fchrg,qchrg
     nproj     2     4     2
     spin-orbit psp, extension_switch     3
        nprojso     4     3
  pspatm : epsatm=   28.79443881
         --- l  ekb(1:nproj) -->
             0    0.868725    8.270752
             1    4.918619    0.757526    0.005498    0.000037
             2  -10.046656   -4.075565
  spin-orbit 1
  spin-orbit 1
  spin-orbit 1
  spin-orbit 1
  spin-orbit 2
  spin-orbit 2
  spin-orbit 2
 pspatm: atomic psp has been read  and splines computed

   1.49261227E+03                                ecore*ucvol(ha*bohr**3)

_setup2: Arith. and geom. avg. npw (full set) are    1590.505    1590.464

[...]
             1    4.918619    0.757526    0.005498    0.000037
             2  -10.046656   -4.075565
  spin-orbit 1
  spin-orbit 1
  spin-orbit 1
  spin-orbit 1
  spin-orbit 2
  spin-orbit 2
  spin-orbit 2
 pspatm: atomic psp has been read  and splines computed

_setup2: Arith. and geom. avg. npw (full set) are   11794.440   11794.421

--- !BeginCycle
iteration_state: {dtset: 151, }
solver: {iscf: 7, nstep: 20, nline: 4, wfoptalg: 0, }
tolerances: {toldfe: 1.00E-06, }
...

     iter   Etot(hartree)      deltaE(h)  residm     vres2
 ETOT  1  -174.58813298058    -1.746E+02 1.540E+00 4.065E+04
 ETOT  2  -179.85227067525    -5.264E+00 1.124E-01 6.516E+04
 ETOT  3  -181.84112731309    -1.989E+00 4.587E-02 1.156E+04
 ETOT  4  -182.05757919864    -2.165E-01 1.786E-01 5.775E+03
 ETOT  5  -182.17424736641    -1.167E-01 1.512E-02 2.515E+03
 ETOT  6  -182.24715426642    -7.291E-02 2.121E-03 5.073E+02
 ETOT  7  -182.26570578235    -1.855E-02 2.533E-03 1.102E+01
 ETOT  8  -182.26591459094    -2.088E-04 2.970E-04 5.830E+00
 ETOT  9  -182.26613911970    -2.245E-04 5.033E-04 1.033E-02
 ETOT 10  -182.26613977121    -6.515E-07 1.164E-04 2.341E-05
 ETOT 11  -182.26613977490    -3.690E-09 1.692E-04 1.610E-06

 At SCF step   11, etot is converged :
  for the second time, diff in etot=  3.690E-09 < toldfe=  1.000E-06

[...]

--- !ResultsGS
iteration_state: {dtset: 151, }
comment   : Summary of ground state results
lattice_vectors:
- [  0.0000000,   5.1085000,   5.1085000, ]
- [  5.1085000,   0.0000000,   5.1085000, ]
- [  5.1085000,   5.1085000,   0.0000000, ]
lattice_lengths: [   7.22451,    7.22451,    7.22451, ]
lattice_angles: [ 60.000,  60.000,  60.000, ] # degrees, (23, 13, 12)
lattice_volume:   2.6663072E+02
convergence: {deltae: -3.690E-09, res2:  1.610E-06, residm:  1.692E-04, diffor: null, }
etotal    :  -1.82266140E+02
entropy   :   0.00000000E+00
fermie    :   1.94163067E-01
cartesian_stress_tensor: # hartree/bohr^3
- [ -4.48888632E-04,   0.00000000E+00,   0.00000000E+00, ]
- [  0.00000000E+00,  -4.48888632E-04,   0.00000000E+00, ]
- [  0.00000000E+00,   0.00000000E+00,  -4.48888632E-04, ]
pressure_GPa:   1.3207E+01
xred      :
- [  0.0000E+00,   0.0000E+00,   0.0000E+00, Ga]
- [  2.5000E-01,   2.5000E-01,   2.5000E-01, As]
cartesian_forces: # hartree/bohr
- [  0.00000000E+00,   0.00000000E+00,   0.00000000E+00, ]
- [  0.00000000E+00,   0.00000000E+00,   0.00000000E+00, ]
force_length_stats: {min:   0.00000000E+00, max:   0.00000000E+00, mean:   0.00000000E+00, }
...

 Integrated electronic density in atomic spheres:
 Atom  Sphere_radius  Integrated_density
    1        2.00000         10.91400505
    2        2.00000         12.47286332

 ----iterations are completed or convergence reached----

 Mean square residual over all n,k,spin=   10.548E-07; max=  16.919E-05
 reduced coordinates (array xred) for    2 atoms
       0.000000000000      0.000000000000      0.000000000000
       0.250000000000      0.250000000000      0.250000000000
 rms dE/dt=  0.0000E+00; max dE/dt=  0.0000E+00; dE/dt below (all hartree)
    1       0.000000000000      0.000000000000      0.000000000000
    2       0.000000000000      0.000000000000      0.000000000000

 cartesian coordinates (angstrom) at end:
    1      0.00000000000000     0.00000000000000     0.00000000000000
    2      1.35165088504101     1.35165088504101     1.35165088504101

 cartesian forces (hartree/bohr) at end:
    1      0.00000000000000     0.00000000000000     0.00000000000000
    2      0.00000000000000     0.00000000000000     0.00000000000000
 frms,max,avg= 0.0000000E+00 0.0000000E+00   0.000E+00  0.000E+00  0.000E+00 h/b

 cartesian forces (eV/Angstrom) at end:
    1      0.00000000000000     0.00000000000000     0.00000000000000
    2      0.00000000000000     0.00000000000000     0.00000000000000
 frms,max,avg= 0.0000000E+00 0.0000000E+00   0.000E+00  0.000E+00  0.000E+00 e/A
 length scales= 10.217000000000 10.217000000000 10.217000000000 bohr
              =  5.406603540164  5.406603540164  5.406603540164 angstroms
 prteigrs : about to open file ecuto_DS151_EIG
 Fermi (or HOMO) energy (eV) =   5.28345   Average Vxc (eV)= -10.85444
 Eigenvalues (   eV  ) for nkpt=  16  k points:
 kpt#   1, nband= 15, wtk=  0.00463, kpt=  0.0000  0.0000  0.0000 (reduced coord)
 -30.13958  -30.13958  -30.13958  -30.12227  -30.12227   -9.83909   -9.83909   -9.83909
  -9.71978   -9.71978   -8.52427    5.28345    5.28345    5.28345    6.76611
 prteigrs : prtvol=0 or 1, do not print more k-points.

--- !EnergyTerms
iteration_state     : {dtset: 151, }
comment             : Components of total free energy in Hartree
kinetic             :  1.38809235465888E+02
hartree             :  5.45461107439837E+01
xc                  : -4.42933992260686E+01
Ewald energy        : -1.03709047935390E+02
psp_core            :  5.59805059945077E+00
local_psp           : -1.43113288303597E+02
non_local_psp       : -9.01038011191672E+01
total_energy        : -1.82266139774900E+02
total_energy_eV     : -4.95971389409523E+03
band_energy         : -1.48253208825400E+01
...

 Cartesian components of stress tensor (hartree/bohr^3)
  sigma(1 1)= -4.48888632E-04  sigma(3 2)=  0.00000000E+00
  sigma(2 2)= -4.48888632E-04  sigma(3 1)=  0.00000000E+00
  sigma(3 3)= -4.48888632E-04  sigma(2 1)=  0.00000000E+00

-Cartesian components of stress tensor (GPa)         [Pressure=  1.3207E+01 GPa]
- sigma(1 1)= -1.32067573E+01  sigma(3 2)=  0.00000000E+00
- sigma(2 2)= -1.32067573E+01  sigma(3 1)=  0.00000000E+00
- sigma(3 3)= -1.32067573E+01  sigma(2 1)=  0.00000000E+00

== END DATASET(S) ==============================================================

 -outvars: echo values of variables after computation  --------
            acell      1.0217000000E+01  1.0217000000E+01  1.0217000000E+01 Bohr
              amu      6.97230000E+01  7.49215900E+01
           diemac      1.20000000E+01
             ecut11    2.50000000E+01 Hartree
             ecut21    3.00000000E+01 Hartree
             ecut31    3.50000000E+01 Hartree
             ecut41    4.00000000E+01 Hartree
             ecut51    4.50000000E+01 Hartree
             ecut61    5.00000000E+01 Hartree
             ecut71    5.50000000E+01 Hartree
             ecut81    6.00000000E+01 Hartree
             ecut91    6.50000000E+01 Hartree
             ecut101   7.00000000E+01 Hartree
             ecut111   7.50000000E+01 Hartree
             ecut121   8.00000000E+01 Hartree
             ecut131   8.50000000E+01 Hartree
             ecut141   9.00000000E+01 Hartree
             ecut151   9.50000000E+01 Hartree
           enunit           1
           etotal11   -1.8152907886E+02
           etotal21   -1.8217727372E+02
           etotal31   -1.8226107721E+02
           etotal41   -1.8226595830E+02
           etotal51   -1.8226601273E+02
           etotal61   -1.8226602857E+02
           etotal71   -1.8226604655E+02
           etotal81   -1.8226607886E+02
           etotal91   -1.8226610153E+02
           etotal101  -1.8226611537E+02
           etotal111  -1.8226612609E+02
           etotal121  -1.8226613199E+02
           etotal131  -1.8226613432E+02
           etotal141  -1.8226613659E+02
           etotal151  -1.8226613977E+02
            fcart11   -4.2167293306E-28 -4.2167293306E-28  1.2650187992E-27
                       4.2167293306E-28  4.2167293306E-28 -1.2650187992E-27
            fcart21    4.2167293306E-28  4.2167293306E-28 -1.2650187992E-27
                      -4.2167293306E-28 -4.2167293306E-28  1.2650187992E-27
            fcart31   -2.1083646653E-28 -2.1083646653E-28  6.3250939959E-28
                       2.1083646653E-28  2.1083646653E-28 -6.3250939959E-28
            fcart41    0.0000000000E+00  0.0000000000E+00  0.0000000000E+00
                       0.0000000000E+00  0.0000000000E+00  0.0000000000E+00
            fcart51    5.2709116632E-29  5.2709116632E-29 -1.5812734990E-28
                      -5.2709116632E-29 -5.2709116632E-29  1.5812734990E-28
            fcart61    0.0000000000E+00  0.0000000000E+00  0.0000000000E+00
                       0.0000000000E+00  0.0000000000E+00  0.0000000000E+00
            fcart71    0.0000000000E+00  0.0000000000E+00  0.0000000000E+00
                       0.0000000000E+00  0.0000000000E+00  0.0000000000E+00
            fcart81    0.0000000000E+00  0.0000000000E+00  0.0000000000E+00
                       0.0000000000E+00  0.0000000000E+00  0.0000000000E+00
            fcart91    1.1859551242E-28  1.1859551242E-28 -3.5578653727E-28
                      -1.1859551242E-28 -1.1859551242E-28  3.5578653727E-28
            fcart101   0.0000000000E+00  0.0000000000E+00  0.0000000000E+00
                       0.0000000000E+00  0.0000000000E+00  0.0000000000E+00
            fcart111  -5.2709116632E-29 -5.2709116632E-29  1.5812734990E-28
                       5.2709116632E-29  5.2709116632E-29 -1.5812734990E-28
            fcart121  -5.2709116632E-29 -5.2709116632E-29  1.5812734990E-28
                       5.2709116632E-29  5.2709116632E-29 -1.5812734990E-28
            fcart131   0.0000000000E+00  0.0000000000E+00  0.0000000000E+00
                       0.0000000000E+00  0.0000000000E+00  0.0000000000E+00
            fcart141  -2.9648878106E-29 -2.9648878106E-29  8.8946634317E-29
                       2.9648878106E-29  2.9648878106E-29 -8.8946634317E-29
            fcart151   0.0000000000E+00  0.0000000000E+00  0.0000000000E+00
                       0.0000000000E+00  0.0000000000E+00  0.0000000000E+00
-          fftalg         112
           istwfk        2    0    0    3    0    0    0    0    0    0
                         0    0    7    0    0    0
              ixc     -116133
           jdtset       11   21   31   41   51   61   71   81   91  101
                       111  121  131  141  151
              kpt      0.00000000E+00  0.00000000E+00  0.00000000E+00
                       1.66666667E-01  0.00000000E+00  0.00000000E+00
                       3.33333333E-01  0.00000000E+00  0.00000000E+00
                       5.00000000E-01  0.00000000E+00  0.00000000E+00
                       1.66666667E-01  1.66666667E-01  0.00000000E+00
                       3.33333333E-01  1.66666667E-01  0.00000000E+00
                       5.00000000E-01  1.66666667E-01  0.00000000E+00
                      -3.33333333E-01  1.66666667E-01  0.00000000E+00
                      -1.66666667E-01  1.66666667E-01  0.00000000E+00
                       3.33333333E-01  3.33333333E-01  0.00000000E+00
                       5.00000000E-01  3.33333333E-01  0.00000000E+00
                      -3.33333333E-01  3.33333333E-01  0.00000000E+00
                       5.00000000E-01  5.00000000E-01  0.00000000E+00
                       5.00000000E-01  3.33333333E-01  1.66666667E-01
                      -3.33333333E-01  3.33333333E-01  1.66666667E-01
                      -3.33333333E-01  5.00000000E-01  1.66666667E-01
         kptrlatt        6    0    0      0    6    0      0    0    6
          kptrlen      4.33470599E+01
P           mkmem          16
            natom           2
            nband          15
           ndtset          15
           ndivsm          20
            ngfft11        36      36      36
            ngfft21        36      36      36
            ngfft31        40      40      40
            ngfft41        45      45      45
            ngfft51        45      45      45
            ngfft61        48      48      48
            ngfft71        50      50      50
            ngfft81        54      54      54
            ngfft91        54      54      54
            ngfft101       60      60      60
            ngfft111       60      60      60
            ngfft121       60      60      60
            ngfft131       60      60      60
            ngfft141       64      64      64
            ngfft151       64      64      64
             nkpt          16
            nstep          20
             nsym          24
           ntypat           2
              occ      2.000000  2.000000  2.000000  2.000000  2.000000  2.000000
                       2.000000  2.000000  2.000000  2.000000  2.000000  2.000000
                       2.000000  2.000000  0.000000
            rprim      0.0000000000E+00  5.0000000000E-01  5.0000000000E-01
                       5.0000000000E-01  0.0000000000E+00  5.0000000000E-01
                       5.0000000000E-01  5.0000000000E-01  0.0000000000E+00
          spgroup         216
           strten11    1.6349578683E-02  1.6349578683E-02  1.6349578683E-02
                       0.0000000000E+00  0.0000000000E+00  0.0000000000E+00
           strten21    2.7957246511E-03  2.7957246511E-03  2.7957246511E-03
                       0.0000000000E+00  0.0000000000E+00  0.0000000000E+00
           strten31   -1.5054174984E-04 -1.5054174984E-04 -1.5054174984E-04
                       0.0000000000E+00  0.0000000000E+00  0.0000000000E+00
           strten41   -4.4387566126E-04 -4.4387566126E-04 -4.4387566126E-04
                       0.0000000000E+00  0.0000000000E+00  0.0000000000E+00
           strten51   -4.4950784847E-04 -4.4950784847E-04 -4.4950784847E-04
                       0.0000000000E+00  0.0000000000E+00  0.0000000000E+00
           strten61   -4.4942203551E-04 -4.4942203551E-04 -4.4942203551E-04
                       0.0000000000E+00  0.0000000000E+00  0.0000000000E+00
           strten71   -4.4958613209E-04 -4.4958613209E-04 -4.4958613209E-04
                       0.0000000000E+00  0.0000000000E+00  0.0000000000E+00
           strten81   -4.4860354608E-04 -4.4860354608E-04 -4.4860354608E-04
                       0.0000000000E+00  0.0000000000E+00  0.0000000000E+00
           strten91   -4.4887594472E-04 -4.4887594472E-04 -4.4887594472E-04
                       0.0000000000E+00  0.0000000000E+00  0.0000000000E+00
           strten101  -4.4748395913E-04 -4.4748395913E-04 -4.4748395913E-04
                       0.0000000000E+00  0.0000000000E+00  0.0000000000E+00
           strten111  -4.4894128613E-04 -4.4894128613E-04 -4.4894128613E-04
                       0.0000000000E+00  0.0000000000E+00  0.0000000000E+00
           strten121  -4.4963515310E-04 -4.4963515310E-04 -4.4963515310E-04
                       0.0000000000E+00  0.0000000000E+00  0.0000000000E+00
           strten131  -4.4968213136E-04 -4.4968213136E-04 -4.4968213136E-04
                       0.0000000000E+00  0.0000000000E+00  0.0000000000E+00
           strten141  -4.4924647279E-04 -4.4924647279E-04 -4.4924647279E-04
                       0.0000000000E+00  0.0000000000E+00  0.0000000000E+00
           strten151  -4.4888863157E-04 -4.4888863157E-04 -4.4888863157E-04
                       0.0000000000E+00  0.0000000000E+00  0.0000000000E+00
           symrel      1  0  0   0  1  0   0  0  1       0 -1  1   0 -1  0   1 -1  0
                      -1  0  0  -1  0  1  -1  1  0       0  1 -1   1  0 -1   0  0 -1
                      -1  0  0  -1  1  0  -1  0  1       0 -1  1   1 -1  0   0 -1  0
                       1  0  0   0  0  1   0  1  0       0  1 -1   0  0 -1   1  0 -1
                      -1  0  1  -1  1  0  -1  0  0       0 -1  0   1 -1  0   0 -1  1
                       1  0 -1   0  0 -1   0  1 -1       0  1  0   0  0  1   1  0  0
                       1  0 -1   0  1 -1   0  0 -1       0 -1  0   0 -1  1   1 -1  0
                      -1  0  1  -1  0  0  -1  1  0       0  1  0   1  0  0   0  0  1
                       0  0 -1   0  1 -1   1  0 -1       1 -1  0   0 -1  1   0 -1  0
                       0  0  1   1  0  0   0  1  0      -1  1  0  -1  0  0  -1  0  1
                       0  0  1   0  1  0   1  0  0       1 -1  0   0 -1  0   0 -1  1
                       0  0 -1   1  0 -1   0  1 -1      -1  1  0  -1  0  1  -1  0  0
           toldfe      1.00000000E-06 Hartree
            typat      1  2
              wtk        0.00463    0.03704    0.03704    0.01852    0.02778    0.11111
                         0.11111    0.11111    0.05556    0.02778    0.11111    0.05556
                         0.01389    0.11111    0.11111    0.05556
           xangst      0.0000000000E+00  0.0000000000E+00  0.0000000000E+00
                       1.3516508850E+00  1.3516508850E+00  1.3516508850E+00
            xcart      0.0000000000E+00  0.0000000000E+00  0.0000000000E+00
                       2.5542500000E+00  2.5542500000E+00  2.5542500000E+00
             xred      0.0000000000E+00  0.0000000000E+00  0.0000000000E+00
                       2.5000000000E-01  2.5000000000E-01  2.5000000000E-01
            znucl       31.00000   33.00000

- Timing analysis has been suppressed with timopt=0

 Suggested references for the acknowledgment of ABINIT usage.

 Calculation completed.
.Delivered   0 WARNINGs and  56 COMMENTs to log file.