.Version 10.0.3 of ABINIT, released Apr 2024.

 ABINIT is a project of the Universite Catholique de Louvain,
 Corning Inc. and other collaborators, see ~abinit/doc/developers/contributors.txt .
 acknowledgments of the ABINIT effort.

.Starting date : Fri 24 May 2024.
- ( at 00h13 )

- input  file    -> ngkpt.abi
- output file    -> ngkpt.abo
- root for input  files -> ngkpti
- root for output files -> ngkpto

 DATASET   11 : space group F-4 3 m (#216); Bravais cF (face-center cubic)
     intxc =       0    ionmov =       0      iscf =       7    lmnmax =       8
     lnmax =       8     mgfft =      45  mpssoang =       3    mqgrid =    3001
     natom =       2  nloc_mem =       1    nspden =       1   nspinor =       1
    nsppol =       1      nsym =      24    n1xccc =    2501    ntypat =       2
    occopt =       1   xclevel =       2
-    mband =          15        mffmem =           1         mkmem =           1
       mpw =        1488          nfft =       91125          nkpt =           1
  Rough estimation (10% accuracy) of disk space for files :

[...]

 DATASET  151 : space group F-4 3 m (#216); Bravais cF (face-center cubic)
     intxc =       0    ionmov =       0      iscf =       7    lmnmax =       8
     lnmax =       8     mgfft =      45  mpssoang =       3    mqgrid =    3001
     natom =       2  nloc_mem =       1    nspden =       1   nspinor =       1
    nsppol =       1      nsym =      24    n1xccc =    2501    ntypat =       2
    occopt =       1   xclevel =       2
-    mband =          15        mffmem =           1         mkmem =         120
       mpw =        3004          nfft =       91125          nkpt =         120
  Rough estimation (10% accuracy) of disk space for files :

------------- Echo of variables that govern the present computation ------------
-
- outvars: echo of selected default values
-   iomode0 =  0 , fftalg0 =112 , wfoptalg0 =  0
-
- outvars: echo of global parameters not present in the input file
-  max_nthreads =    6
-
 -outvars: echo values of preprocessed input variables --------
            acell      1.0217000000E+01  1.0217000000E+01  1.0217000000E+01 Bohr
              amu      6.97230000E+01  7.49215900E+01
           diemac      1.20000000E+01
             ecut      3.80000000E+01 Hartree
           enunit           1
-          fftalg         112
           istwfk11      2
           istwfk21      2    3    7
           istwfk31      2    0    0    0
           istwfk41      2    0    3    0    0    0    7    0
           istwfk51      2    0    0    0    0    0    0    0    0    0
           istwfk61      2    0    0    3    0    0    0    0    0    0
                         0    0    7    0    0    0
           istwfk71      2    0    0    0    0    0    0    0    0    0
                         0    0    0    0    0    0    0    0    0    0
           istwfk81      2    0    0    0    3    0    0    0    0    0
                         0    0    0    0    0    0    0    0    0    0
                         7    0    0    0    0    0    0    0    0
           istwfk91      2    0    0    0    0    0    0    0    0    0
                         0    0    0    0    0    0    0    0    0    0
                         0    0    0    0    0    0    0    0    0    0
                         0    0    0    0    0
           istwfk101     2    0    0    0    0    3    0    0    0    0
                         0    0    0    0    0    0    0    0    0    0
                         0    0    0    0    0    0    0    0    0    0
                         7    0    0    0    0    0    0    0    0    0
                         0    0    0    0    0    0    0
           istwfk111     2    0    0    0    0    0    0    0    0    0
                         0    0    0    0    0    0    0    0    0    0
                         0    0    0    0    0    0    0    0    0    0
                         0    0    0    0    0    0    0    0    0    0
                         0    0    0    0    0    0    0    0    0    0
           istwfk121     2    0    0    0    0    0    3    0    0    0
                         0    0    0    0    0    0    0    0    0    0
                         0    0    0    0    0    0    0    0    0    0
                         0    0    0    0    0    0    0    0    0    0
                         0    0    7    0    0    0    0    0    0    0
           istwfk131     2    0    0    0    0    0    0    0    0    0
                         0    0    0    0    0    0    0    0    0    0
                         0    0    0    0    0    0    0    0    0    0
                         0    0    0    0    0    0    0    0    0    0
                         0    0    0    0    0    0    0    0    0    0
           istwfk141     2    0    0    0    0    0    0    3    0    0
                         0    0    0    0    0    0    0    0    0    0
                         0    0    0    0    0    0    0    0    0    0
                         0    0    0    0    0    0    0    0    0    0
                         0    0    0    0    0    0    0    0    0    0
           istwfk151     2    0    0    0    0    0    0    0    0    0
                         0    0    0    0    0    0    0    0    0    0
                         0    0    0    0    0    0    0    0    0    0
                         0    0    0    0    0    0    0    0    0    0
                         0    0    0    0    0    0    0    0    0    0
                       outvar_i_n : Printing only first  50 k-points.
              ixc     -116133
           jdtset       11   21   31   41   51   61   71   81   91  101
                       111  121  131  141  151
              kpt11    0.00000000E+00  0.00000000E+00  0.00000000E+00
              kpt21    0.00000000E+00  0.00000000E+00  0.00000000E+00
                       5.00000000E-01  0.00000000E+00  0.00000000E+00
                       5.00000000E-01  5.00000000E-01  0.00000000E+00
              kpt31    0.00000000E+00  0.00000000E+00  0.00000000E+00
                       3.33333333E-01  0.00000000E+00  0.00000000E+00
                       3.33333333E-01  3.33333333E-01  0.00000000E+00
                      -3.33333333E-01  3.33333333E-01  0.00000000E+00
              kpt41    0.00000000E+00  0.00000000E+00  0.00000000E+00
                       2.50000000E-01  0.00000000E+00  0.00000000E+00
                       5.00000000E-01  0.00000000E+00  0.00000000E+00
                       2.50000000E-01  2.50000000E-01  0.00000000E+00
                       5.00000000E-01  2.50000000E-01  0.00000000E+00
                      -2.50000000E-01  2.50000000E-01  0.00000000E+00
                       5.00000000E-01  5.00000000E-01  0.00000000E+00
                      -2.50000000E-01  5.00000000E-01  2.50000000E-01
              kpt51    0.00000000E+00  0.00000000E+00  0.00000000E+00
                       2.00000000E-01  0.00000000E+00  0.00000000E+00
                       4.00000000E-01  0.00000000E+00  0.00000000E+00
                       2.00000000E-01  2.00000000E-01  0.00000000E+00
                       4.00000000E-01  2.00000000E-01  0.00000000E+00
                      -4.00000000E-01  2.00000000E-01  0.00000000E+00
                      -2.00000000E-01  2.00000000E-01  0.00000000E+00
                       4.00000000E-01  4.00000000E-01  0.00000000E+00
                      -4.00000000E-01  4.00000000E-01  0.00000000E+00
                      -4.00000000E-01  4.00000000E-01  2.00000000E-01
              kpt61    0.00000000E+00  0.00000000E+00  0.00000000E+00
                       1.66666667E-01  0.00000000E+00  0.00000000E+00
                       3.33333333E-01  0.00000000E+00  0.00000000E+00
                       5.00000000E-01  0.00000000E+00  0.00000000E+00
                       1.66666667E-01  1.66666667E-01  0.00000000E+00
                       3.33333333E-01  1.66666667E-01  0.00000000E+00
                       5.00000000E-01  1.66666667E-01  0.00000000E+00
                      -3.33333333E-01  1.66666667E-01  0.00000000E+00
                      -1.66666667E-01  1.66666667E-01  0.00000000E+00
                       3.33333333E-01  3.33333333E-01  0.00000000E+00
                       5.00000000E-01  3.33333333E-01  0.00000000E+00
                      -3.33333333E-01  3.33333333E-01  0.00000000E+00
                       5.00000000E-01  5.00000000E-01  0.00000000E+00
                       5.00000000E-01  3.33333333E-01  1.66666667E-01
                      -3.33333333E-01  3.33333333E-01  1.66666667E-01
                      -3.33333333E-01  5.00000000E-01  1.66666667E-01
              kpt71    0.00000000E+00  0.00000000E+00  0.00000000E+00
                       1.42857143E-01  0.00000000E+00  0.00000000E+00
                       2.85714286E-01  0.00000000E+00  0.00000000E+00
                       4.28571429E-01  0.00000000E+00  0.00000000E+00
                       1.42857143E-01  1.42857143E-01  0.00000000E+00
                       2.85714286E-01  1.42857143E-01  0.00000000E+00
                       4.28571429E-01  1.42857143E-01  0.00000000E+00
                      -4.28571429E-01  1.42857143E-01  0.00000000E+00
                      -2.85714286E-01  1.42857143E-01  0.00000000E+00
                      -1.42857143E-01  1.42857143E-01  0.00000000E+00
                       2.85714286E-01  2.85714286E-01  0.00000000E+00
                       4.28571429E-01  2.85714286E-01  0.00000000E+00
                      -4.28571429E-01  2.85714286E-01  0.00000000E+00
                      -2.85714286E-01  2.85714286E-01  0.00000000E+00
                       4.28571429E-01  4.28571429E-01  0.00000000E+00
                      -4.28571429E-01  4.28571429E-01  0.00000000E+00
                       4.28571429E-01  2.85714286E-01  1.42857143E-01
                      -4.28571429E-01  2.85714286E-01  1.42857143E-01
                      -4.28571429E-01  4.28571429E-01  1.42857143E-01
                      -2.85714286E-01  4.28571429E-01  1.42857143E-01
              kpt81    0.00000000E+00  0.00000000E+00  0.00000000E+00
                       1.25000000E-01  0.00000000E+00  0.00000000E+00
                       2.50000000E-01  0.00000000E+00  0.00000000E+00
                       3.75000000E-01  0.00000000E+00  0.00000000E+00
                       5.00000000E-01  0.00000000E+00  0.00000000E+00
                       1.25000000E-01  1.25000000E-01  0.00000000E+00
                       2.50000000E-01  1.25000000E-01  0.00000000E+00
                       3.75000000E-01  1.25000000E-01  0.00000000E+00
                       5.00000000E-01  1.25000000E-01  0.00000000E+00
                      -3.75000000E-01  1.25000000E-01  0.00000000E+00
                      -2.50000000E-01  1.25000000E-01  0.00000000E+00
                      -1.25000000E-01  1.25000000E-01  0.00000000E+00
                       2.50000000E-01  2.50000000E-01  0.00000000E+00
                       3.75000000E-01  2.50000000E-01  0.00000000E+00
                       5.00000000E-01  2.50000000E-01  0.00000000E+00
                      -3.75000000E-01  2.50000000E-01  0.00000000E+00
[...]
         kptrlatt71      7    0    0      0    7    0      0    0    7
         kptrlatt81      8    0    0      0    8    0      0    0    8
         kptrlatt91      9    0    0      0    9    0      0    0    9
         kptrlatt101    10    0    0      0   10    0      0    0   10
         kptrlatt111    11    0    0      0   11    0      0    0   11
         kptrlatt121    12    0    0      0   12    0      0    0   12
         kptrlatt131    13    0    0      0   13    0      0    0   13
         kptrlatt141    14    0    0      0   14    0      0    0   14
         kptrlatt151    15    0    0      0   15    0      0    0   15
          kptrlen11    7.22450998E+00
          kptrlen21    1.44490200E+01
          kptrlen31    2.16735300E+01
          kptrlen41    2.88980399E+01
          kptrlen51    3.61225499E+01
          kptrlen61    4.33470599E+01
          kptrlen71    5.05715699E+01
          kptrlen81    5.77960799E+01
          kptrlen91    6.50205899E+01
          kptrlen101   7.22450998E+01
          kptrlen111   7.94696098E+01
          kptrlen121   8.66941198E+01
          kptrlen131   9.39186298E+01
          kptrlen141   1.01143140E+02
          kptrlen151   1.08367650E+02
P           mkmem11         1
P           mkmem21         3
P           mkmem31         4
P           mkmem41         8
P           mkmem51        10
P           mkmem61        16
P           mkmem71        20
P           mkmem81        29
P           mkmem91        35
P           mkmem101       47
P           mkmem111       56
P           mkmem121       72
P           mkmem131       84
P           mkmem141      104
P           mkmem151      120
            natom           2
            nband11        15
            nband21        15
            nband31        15
            nband41        15
            nband51        15
            nband61        15
            nband71        15
            nband81        15
            nband91        15
            nband101       15
            nband111       15
            nband121       15
            nband131       15
            nband141       15
            nband151       15
           ndtset          15
           ndivsm          20
            ngfft          45      45      45
             nkpt11         1
             nkpt21         3
             nkpt31         4
             nkpt41         8
             nkpt51        10
             nkpt61        16
             nkpt71        20
             nkpt81        29
             nkpt91        35
             nkpt101       47
             nkpt111       56
             nkpt121       72
             nkpt131       84
             nkpt141      104
             nkpt151      120
            nstep          20
             nsym          24
           ntypat           2
              occ11    2.000000  2.000000  2.000000  2.000000  2.000000  2.000000
                       2.000000  2.000000  2.000000  2.000000  2.000000  2.000000
                       2.000000  2.000000  0.000000
              occ21    2.000000  2.000000  2.000000  2.000000  2.000000  2.000000
                       2.000000  2.000000  2.000000  2.000000  2.000000  2.000000
                       2.000000  2.000000  0.000000
              occ31    2.000000  2.000000  2.000000  2.000000  2.000000  2.000000
                       2.000000  2.000000  2.000000  2.000000  2.000000  2.000000
                       2.000000  2.000000  0.000000
              occ41    2.000000  2.000000  2.000000  2.000000  2.000000  2.000000
                       2.000000  2.000000  2.000000  2.000000  2.000000  2.000000
                       2.000000  2.000000  0.000000
              occ51    2.000000  2.000000  2.000000  2.000000  2.000000  2.000000
                       2.000000  2.000000  2.000000  2.000000  2.000000  2.000000
                       2.000000  2.000000  0.000000
              occ61    2.000000  2.000000  2.000000  2.000000  2.000000  2.000000
                       2.000000  2.000000  2.000000  2.000000  2.000000  2.000000
                       2.000000  2.000000  0.000000
              occ71    2.000000  2.000000  2.000000  2.000000  2.000000  2.000000
                       2.000000  2.000000  2.000000  2.000000  2.000000  2.000000
                       2.000000  2.000000  0.000000
              occ81    2.000000  2.000000  2.000000  2.000000  2.000000  2.000000
                       2.000000  2.000000  2.000000  2.000000  2.000000  2.000000
                       2.000000  2.000000  0.000000
              occ91    2.000000  2.000000  2.000000  2.000000  2.000000  2.000000
                       2.000000  2.000000  2.000000  2.000000  2.000000  2.000000
                       2.000000  2.000000  0.000000
              occ101   2.000000  2.000000  2.000000  2.000000  2.000000  2.000000
                       2.000000  2.000000  2.000000  2.000000  2.000000  2.000000
                       2.000000  2.000000  0.000000
              occ111   2.000000  2.000000  2.000000  2.000000  2.000000  2.000000
                       2.000000  2.000000  2.000000  2.000000  2.000000  2.000000
                       2.000000  2.000000  0.000000
              occ121   2.000000  2.000000  2.000000  2.000000  2.000000  2.000000
                       2.000000  2.000000  2.000000  2.000000  2.000000  2.000000
                       2.000000  2.000000  0.000000
              occ131   2.000000  2.000000  2.000000  2.000000  2.000000  2.000000
                       2.000000  2.000000  2.000000  2.000000  2.000000  2.000000
                       2.000000  2.000000  0.000000
              occ141   2.000000  2.000000  2.000000  2.000000  2.000000  2.000000
                       2.000000  2.000000  2.000000  2.000000  2.000000  2.000000
                       2.000000  2.000000  0.000000
              occ151   2.000000  2.000000  2.000000  2.000000  2.000000  2.000000
                       2.000000  2.000000  2.000000  2.000000  2.000000  2.000000
                       2.000000  2.000000  0.000000
            rprim      0.0000000000E+00  5.0000000000E-01  5.0000000000E-01
                       5.0000000000E-01  0.0000000000E+00  5.0000000000E-01
                       5.0000000000E-01  5.0000000000E-01  0.0000000000E+00
          spgroup         216
           strten11   -2.5598157789E-03 -2.5598157789E-03 -2.5598157789E-03
                       0.0000000000E+00  0.0000000000E+00  0.0000000000E+00
           strten21   -6.9482616527E-04 -6.9482616527E-04 -6.9482616527E-04
                       0.0000000000E+00  0.0000000000E+00  0.0000000000E+00
           strten31   -4.7202872948E-04 -4.7202872948E-04 -4.7202872948E-04
                       0.0000000000E+00  0.0000000000E+00  0.0000000000E+00
           strten41   -4.2633463913E-04 -4.2633463913E-04 -4.2633463913E-04
                       0.0000000000E+00  0.0000000000E+00  0.0000000000E+00
           strten51   -4.1360956408E-04 -4.1360956408E-04 -4.1360956408E-04
                       0.0000000000E+00  0.0000000000E+00  0.0000000000E+00
           strten61   -4.0949520516E-04 -4.0949520516E-04 -4.0949520516E-04
                       0.0000000000E+00  0.0000000000E+00  0.0000000000E+00
           strten71   -4.0854714101E-04 -4.0854714101E-04 -4.0854714101E-04
                       0.0000000000E+00  0.0000000000E+00  0.0000000000E+00
           strten81   -4.0949837677E-04 -4.0949837677E-04 -4.0949837677E-04
                       0.0000000000E+00  0.0000000000E+00  0.0000000000E+00
           strten91   -4.0944124848E-04 -4.0944124848E-04 -4.0944124848E-04
                       0.0000000000E+00  0.0000000000E+00  0.0000000000E+00
           strten101  -4.0953185666E-04 -4.0953185666E-04 -4.0953185666E-04
                       0.0000000000E+00  0.0000000000E+00  0.0000000000E+00
           strten111  -4.0943995819E-04 -4.0943995819E-04 -4.0943995819E-04
                       0.0000000000E+00  0.0000000000E+00  0.0000000000E+00
           strten121  -4.0962720948E-04 -4.0962720948E-04 -4.0962720948E-04
                       0.0000000000E+00  0.0000000000E+00  0.0000000000E+00
           strten131  -4.0974755576E-04 -4.0974755576E-04 -4.0974755576E-04
                       0.0000000000E+00  0.0000000000E+00  0.0000000000E+00
           strten141  -4.0981436451E-04 -4.0981436451E-04 -4.0981436451E-04
                       0.0000000000E+00  0.0000000000E+00  0.0000000000E+00
           strten151  -4.0957610167E-04 -4.0957610167E-04 -4.0957610167E-04
                       0.0000000000E+00  0.0000000000E+00  0.0000000000E+00
           symrel      1  0  0   0  1  0   0  0  1       0 -1  1   0 -1  0   1 -1  0
                      -1  0  0  -1  0  1  -1  1  0       0  1 -1   1  0 -1   0  0 -1
                      -1  0  0  -1  1  0  -1  0  1       0 -1  1   1 -1  0   0 -1  0
                       1  0  0   0  0  1   0  1  0       0  1 -1   0  0 -1   1  0 -1
                      -1  0  1  -1  1  0  -1  0  0       0 -1  0   1 -1  0   0 -1  1
                       1  0 -1   0  0 -1   0  1 -1       0  1  0   0  0  1   1  0  0
                       1  0 -1   0  1 -1   0  0 -1       0 -1  0   0 -1  1   1 -1  0
                      -1  0  1  -1  0  0  -1  1  0       0  1  0   1  0  0   0  0  1
                       0  0 -1   0  1 -1   1  0 -1       1 -1  0   0 -1  1   0 -1  0
                       0  0  1   1  0  0   0  1  0      -1  1  0  -1  0  0  -1  0  1
                       0  0  1   0  1  0   1  0  0       1 -1  0   0 -1  0   0 -1  1
                       0  0 -1   1  0 -1   0  1 -1      -1  1  0  -1  0  1  -1  0  0
           toldfe      1.00000000E-06 Hartree
            typat      1  2
              wtk11      1.00000
              wtk21      0.12500    0.50000    0.37500
              wtk31      0.03704    0.29630    0.22222    0.44444
              wtk41      0.01563    0.12500    0.06250    0.09375    0.37500    0.18750
                         0.04688    0.09375
              wtk51      0.00800    0.06400    0.06400    0.04800    0.19200    0.19200
                         0.09600    0.04800    0.09600    0.19200
              wtk61      0.00463    0.03704    0.03704    0.01852    0.02778    0.11111
                         0.11111    0.11111    0.05556    0.02778    0.11111    0.05556
                         0.01389    0.11111    0.11111    0.05556
              wtk71      0.00292    0.02332    0.02332    0.02332    0.01749    0.06997
                         0.06997    0.06997    0.06997    0.03499    0.01749    0.06997
                         0.06997    0.03499    0.01749    0.03499    0.06997    0.13994
                         0.06997    0.06997
              wtk81      0.00195    0.01563    0.01563    0.01563    0.00781    0.01172
                         0.04688    0.04688    0.04688    0.04688    0.04688    0.02344
                         0.01172    0.04688    0.04688    0.04688    0.02344    0.01172
                         0.04688    0.02344    0.00586    0.04688    0.09375    0.04688
                         0.04688    0.09375    0.04688    0.02344    0.01172
              wtk91      0.00137    0.01097    0.01097    0.01097    0.01097    0.00823
                         0.03292    0.03292    0.03292    0.03292    0.03292    0.03292
                         0.01646    0.00823    0.03292    0.03292    0.03292    0.03292
                         0.01646    0.00823    0.03292    0.03292    0.01646    0.00823
                         0.01646    0.03292    0.06584    0.06584    0.03292    0.06584
                         0.06584    0.03292    0.03292    0.03292    0.03292
              wtk101     0.00100    0.00800    0.00800    0.00800    0.00800    0.00400
                         0.00600    0.02400    0.02400    0.02400    0.02400    0.02400
                         0.02400    0.02400    0.01200    0.00600    0.02400    0.02400
                         0.02400    0.02400    0.02400    0.01200    0.00600    0.02400
                         0.02400    0.02400    0.01200    0.00600    0.02400    0.01200
                         0.00300    0.02400    0.04800    0.04800    0.02400    0.02400
                         0.04800    0.04800    0.04800    0.02400    0.02400    0.04800
                         0.02400    0.01200    0.02400    0.02400    0.01200
              wtk111     0.00075    0.00601    0.00601    0.00601    0.00601    0.00601
                         0.00451    0.01803    0.01803    0.01803    0.01803    0.01803
                         0.01803    0.01803    0.01803    0.00902    0.00451    0.01803
                         0.01803    0.01803    0.01803    0.01803    0.01803    0.00902
                         0.00451    0.01803    0.01803    0.01803    0.01803    0.00902
                         0.00451    0.01803    0.01803    0.00902    0.00451    0.00902
                         0.01803    0.03606    0.03606    0.03606    0.01803    0.03606
                         0.03606    0.03606    0.03606    0.01803    0.01803    0.03606
                         0.03606    0.01803
              wtk121     0.00058    0.00463    0.00463    0.00463    0.00463    0.00463
                         0.00231    0.00347    0.01389    0.01389    0.01389    0.01389
                         0.01389    0.01389    0.01389    0.01389    0.01389    0.00694
                         0.00347    0.01389    0.01389    0.01389    0.01389    0.01389
                         0.01389    0.01389    0.00694    0.00347    0.01389    0.01389
                         0.01389    0.01389    0.01389    0.00694    0.00347    0.01389
                         0.01389    0.01389    0.00694    0.00347    0.01389    0.00694
                         0.00174    0.01389    0.02778    0.02778    0.02778    0.01389
                         0.01389    0.02778
              wtk131     0.00046    0.00364    0.00364    0.00364    0.00364    0.00364
                         0.00364    0.00273    0.01092    0.01092    0.01092    0.01092
                         0.01092    0.01092    0.01092    0.01092    0.01092    0.01092
                         0.00546    0.00273    0.01092    0.01092    0.01092    0.01092
                         0.01092    0.01092    0.01092    0.01092    0.00546    0.00273
                         0.01092    0.01092    0.01092    0.01092    0.01092    0.01092
                         0.00546    0.00273    0.01092    0.01092    0.01092    0.01092
                         0.00546    0.00273    0.01092    0.01092    0.00546    0.00273
                         0.00546    0.01092
              wtk141     0.00036    0.00292    0.00292    0.00292    0.00292    0.00292
                         0.00292    0.00146    0.00219    0.00875    0.00875    0.00875
                         0.00875    0.00875    0.00875    0.00875    0.00875    0.00875
                         0.00875    0.00875    0.00437    0.00219    0.00875    0.00875
                         0.00875    0.00875    0.00875    0.00875    0.00875    0.00875
                         0.00875    0.00437    0.00219    0.00875    0.00875    0.00875
                         0.00875    0.00875    0.00875    0.00875    0.00437    0.00219
                         0.00875    0.00875    0.00875    0.00875    0.00875    0.00437
                         0.00219    0.00875
              wtk151     0.00030    0.00237    0.00237    0.00237    0.00237    0.00237
                         0.00237    0.00237    0.00178    0.00711    0.00711    0.00711
                         0.00711    0.00711    0.00711    0.00711    0.00711    0.00711
                         0.00711    0.00711    0.00711    0.00356    0.00178    0.00711
                         0.00711    0.00711    0.00711    0.00711    0.00711    0.00711
                         0.00711    0.00711    0.00711    0.00356    0.00178    0.00711
                         0.00711    0.00711    0.00711    0.00711    0.00711    0.00711
                         0.00711    0.00356    0.00178    0.00711    0.00711    0.00711
                         0.00711    0.00711
                       outvars : Printing only first  50 k-points.
           xangst      0.0000000000E+00  0.0000000000E+00  0.0000000000E+00
                       1.3516508850E+00  1.3516508850E+00  1.3516508850E+00
            xcart      0.0000000000E+00  0.0000000000E+00  0.0000000000E+00
                       2.5542500000E+00  2.5542500000E+00  2.5542500000E+00
             xred      0.0000000000E+00  0.0000000000E+00  0.0000000000E+00
                       2.5000000000E-01  2.5000000000E-01  2.5000000000E-01
            znucl       31.00000   33.00000

- Timing analysis has been suppressed with timopt=0

 Suggested references for the acknowledgment of ABINIT usage.

 Calculation completed.
.Delivered   0 WARNINGs and  24 COMMENTs to log file.